
$molecule
READ
$end

$rem
jobtype       sp
exchange      omegaB97X-D
basis         6-311++G**
scf_guess     READ
cis_n_roots   10
rpa           true
$end
