
$molecule
READ
$end

$rem
jobtype       opt
exchange      omegaB97X-D
basis         6-31G**
scf_guess     READ
cis_n_roots   10
rpa           true
$end
