$molecule
0 2
  C -3.77578000 1.41262000 -0.21447000
  O -2.58788000 2.06725000 -0.31292000
  O -4.74823000 1.86911000 -0.79440000
  C -3.94794000 0.18513000 0.64310000
  Si -5.09683000 0.52472000 2.08857000
  H -6.44891000 0.92942000 1.68661000
  H -4.52084000 1.59870000 2.91141000
  H -5.20411000 -0.69259000 2.90604000
  H -2.97500000 -0.09451000 1.10097000
  C -1.91298000 2.29507000 -1.49424000
  H -0.96024000 2.81679000 -1.26960000
  H -2.50277000 2.93872000 -2.17280000
  H -1.67976000 1.33066000 -1.99391000
$end

$rem
    jobtype                     sp
    exchange                    b3lyp
    basis                       sto-3g
    unrestricted                true
    chelpg                      true
    chelpg_head                 30 ! default 30
    chelpg_dx                   6 ! default 6
    !chelpg_h                   ! lebedev grid for H atoms
    !chelpg_ha                  ! lebedev grid for non-H atoms
$end
