 # Version information for this restart file 
 # current date 2015-03-10 10:19:39.198
 # current working dir /home/dlambrecht/bja39/cp2k/aimd
 # Program compiled at                              Fri Feb 27 09:44:54 EST 2015
 # Program compiled on                                login0a.frank.sam.pitt.edu
 # Program compiled for                                                    Frank
 # Source code revision number                                       git:9520686
 &GLOBAL
   PRINT_LEVEL  LOW
   PROJECT_NAME WATER
   RUN_TYPE  MD
   WALLTIME 1800
 &END GLOBAL
 &MOTION
   &GEO_OPT
     OPTIMIZER  BFGS
     MAX_ITER  100
     MAX_DR     3.0000000000000001E-03
     &BFGS
     &END BFGS
   &END GEO_OPT
   &MD
     ENSEMBLE  NVT
     STEPS  1000
     TIMESTEP     4.9999999999999994E-01
     STEP_START_VAL  47
     TIME_START_VAL     2.3500000000000014E+01
     ECONS_START_VAL    -1.1023558357478485E+03
     TEMPERATURE     3.0000000000000000E+02
     &THERMOSTAT
       TYPE  GLE
       REGION  MASSIVE
       &GLE
         NDIM  5
         A_SCALE     1.0000000000000000E+00
         A_LIST     1.8595758612559999E+02    2.7263853498399998E-01    1.1526100454610001E+01   -3.6414578262600003E+01 \
             2.3173375816020001E+02
         A_LIST    -2.7809524712060002E-01    8.5951591808710006E-05    7.2189048017650004E-01   -1.9844539343859999E-01 \
             4.2409257583420001E-01
         A_LIST    -1.4825808131210000E+01   -7.2189048017650004E-01    1.3590902121280000E+00    5.1498896280349999E+00 \
            -9.9949268450990001E+00
         A_LIST    -1.0372189126880000E+01    1.9844539343859999E-01   -5.1498896280349999E+00    2.6661910891169999E+01 \
             1.1507715495310000E+01
         A_LIST     2.1801346360420001E+02   -4.2409257583420001E-01    9.9949268450990001E+00   -1.1507715495310000E+01 \
             3.0958394565589998E+02
         &THERMOSTAT_ENERGY
              -9.9621603442386899E-04
              -3.4375199130261361E-04
               1.2611874879731413E-04
              -2.6187556175842328E-03
              -1.3259879726828529E-03
               2.3328491739438581E-03
               4.8049379251490621E-04
               2.6331338670265107E-03
               7.0167065604254228E-04
               1.2209091410378063E-03
              -6.1197947405731154E-06
               5.8998861624252354E-04
               2.8251311331135157E-03
              -3.4746384276124892E-04
               6.4426235063563310E-04
               3.1262098417548606E-04
               1.7844214498917511E-04
               1.1824804176502582E-03
              -1.6010581693921361E-04
               4.0153973068425791E-04
              -4.0389640053159123E-04
               1.2523492159750729E-03
              -4.9835668286951466E-04
              -7.9835366182902097E-04
               2.6666549145451610E-04
               2.5477671081107229E-05
               8.8325887933145709E-04
              -7.6136773073076766E-04
               1.5538926220296082E-03
               9.1672113664954770E-04
               1.5084098807361798E-03
              -3.4623174724821471E-04
              -1.6939408560649836E-04
               6.1131835238642160E-04
              -4.8238170082690532E-03
               1.0178908160754789E-03
               7.7219797489448997E-04
               1.1599463329912659E-04
               3.6205980750509495E-05
               1.6768316169390765E-04
              -1.7880187952967327E-03
              -2.1777178221033624E-03
              -2.4034336465652193E-03
               2.1721943584505532E-03
              -1.3464551645851134E-03
               2.1887621816649053E-03
               6.1310524303184364E-04
              -1.4537719765401571E-03
               1.7342377551747765E-03
               3.5603445516922970E-04
              -7.2044402401429922E-04
              -3.0554566173395046E-04
              -2.3931927854703989E-04
              -8.0329646109296513E-04
              -6.9665949084315429E-04
              -4.7003805439035332E-04
              -1.5537125805571960E-04
              -2.7705947602013424E-05
              -2.0855096942379936E-03
              -4.6389541239395219E-04
               9.1032527334443695E-04
               1.2905978058776026E-03
               6.8183803208352240E-05
               1.5314659864914502E-03
              -7.9814275248565587E-04
               9.0564815377422220E-04
              -2.9418265108914070E-04
              -3.4909317244690563E-04
               1.2019260541146879E-03
               7.8049966000646185E-04
              -7.3612128571344624E-04
               2.8895432794370781E-03
              -5.6369250382986159E-04
               3.0926015342423518E-04
               2.4000860596819662E-04
              -3.8414117534143224E-04
               1.1574738829610277E-03
               1.8802653562124867E-03
               4.3296405141955785E-03
              -1.1740776263120998E-03
               9.0851953453836691E-05
              -1.5335798339040997E-04
              -7.9543861583918042E-05
              -1.2607292876261509E-03
               4.8035820774994080E-04
               6.3175063889519233E-04
              -6.5844998959976018E-04
              -2.0400767258428342E-03
              -3.5415529325392986E-04
              -5.3485081331108061E-04
               2.1231555409637805E-03
               3.7604752556944588E-03
              -2.0858703067683621E-03
               1.7092571238216318E-04
              -5.5484332421777130E-04
               1.2839020928241381E-04
              -6.0403159372574532E-04
              -1.6439572671149887E-03
               1.3618707435988015E-03
               1.8991703985446985E-03
              -1.5975273024906639E-03
              -2.8766582343397703E-04
              -3.0503954600495442E-04
               2.0568140784270458E-03
               5.0495666419535928E-04
               1.4746119922260650E-03
               1.0223440618033811E-03
              -7.1922566394422478E-04
               6.2958947793892136E-04
               4.9347025659366665E-04
               6.7539004333352123E-04
               1.3060829969125387E-03
               1.4251089640866285E-03
               4.9768445397148863E-04
               1.2580087318590930E-03
               2.0082280021391698E-03
              -6.9355896330846782E-03
               1.2550786248506306E-03
               9.6661873290913923E-04
               6.3862211689246146E-04
              -5.0763968649703646E-04
              -1.0412465153363777E-03
               2.1847786310076802E-03
              -7.2180437892417930E-04
               2.1626323286193076E-04
              -2.3560076378880733E-03
              -1.4497615314027474E-04
               2.2753317851668467E-03
              -1.2011826354910545E-04
              -1.1124683366967798E-03
              -3.1963699434909318E-03
              -2.2950410867553189E-03
               2.0018852957843537E-03
              -1.0010280430384035E-03
              -2.0392564618683670E-03
              -2.1937529996567079E-03
               2.5178812873439600E-04
               9.1886299452037382E-04
               5.7777006194491265E-04
               6.5218240121589954E-04
               3.7390507024278249E-03
               2.9947615210490107E-04
              -1.1315368599838908E-03
               2.6668440268636380E-04
               6.5724051025642881E-04
              -3.5642205053491220E-04
               1.1807221196509904E-03
              -5.7815953129803320E-04
              -9.4008605156683871E-04
               5.6892050293702091E-04
              -7.8872456723131333E-04
               5.1647708591189158E-05
              -3.8200471347846058E-04
               9.2904135899523179E-04
               2.6335422052115086E-04
              -2.8344543543912866E-05
               2.5522044177650076E-04
              -2.1285016899771952E-04
               5.1456051089448758E-04
              -2.0030242233942374E-04
              -6.6628837029226540E-04
              -9.5519164982333586E-04
              -1.4023523247212101E-03
               5.1225425028582480E-04
               1.7161786023254023E-03
               7.2674830651072982E-04
               4.6825951416401183E-04
               1.1777269339331988E-03
              -4.0937066964316527E-03
              -4.6680450655702649E-04
               5.7725146613433163E-04
              -3.6657305189434118E-04
               1.3854990983753576E-04
               1.1944980492470554E-04
              -2.5343930830501552E-04
              -7.9872438572121298E-05
               2.6753460173219434E-04
              -1.0184314867448278E-03
               3.8890674998560607E-04
               1.8770413744263136E-03
              -5.1196870640095587E-04
               6.6279402138616440E-04
               1.2983072879707944E-03
               1.3044827603717996E-03
               5.3200226793359822E-04
               9.3333984830691982E-05
              -4.6112435703912449E-04
              -4.1202880393987799E-04
              -3.4244228747779201E-03
               9.6084034520480443E-04
              -1.0926820401736420E-03
              -5.9674472981927041E-04
               1.7291095796341106E-03
              -1.4040386673405570E-03
              -5.3034661850282080E-04
              -4.2852334678305185E-03
              -1.9525993057153325E-04
               8.5020436629930514E-04
               3.4123037608107550E-04
               5.7703616444017413E-05
               9.6787098829985798E-04
               2.7420833899442114E-04
               1.1626057464136563E-03
               1.2351094791954930E-03
              -4.7309011322419960E-03
              -3.9922185994899629E-04
               5.4616799817058781E-05
               8.3486883570992737E-04
               1.1027140292592837E-03
               2.4138879269799385E-03
              -6.2765231190878420E-04
               8.9232906684781784E-04
               2.1698394203210980E-03
              -1.7590927929006343E-03
              -2.5486101518675653E-04
               1.9350217782102756E-03
              -6.5698290830967635E-04
               6.9258176300060980E-04
               6.3168516754433181E-04
              -5.5983260866149221E-04
               2.7710244371258776E-03
              -6.9850638883472776E-04
               1.0306526217651881E-03
               3.0265415863368330E-04
              -1.4915259153603570E-04
               9.6959599263872091E-05
               1.1684913033176093E-04
              -2.3563692751986387E-03
               4.4746693639295470E-04
               3.6473266673359688E-03
               1.0861081075148643E-04
               2.1693432090186798E-03
              -1.1659227629472369E-03
               1.5991334925257551E-04
               3.9994933570148660E-05
              -2.2287145494924842E-03
              -1.7629714596892267E-03
               7.7253876744516137E-04
               2.5768949526371992E-04
               2.1757680141739992E-04
               7.1625508989280441E-04
              -2.7987843697833362E-03
               1.7957469604419365E-03
               1.1350721566684631E-03
               3.7365905427904765E-04
              -1.5969498798509686E-04
              -2.0172014117945405E-04
               1.3255865263284662E-03
              -1.9334949779232743E-04
              -2.0686973037190807E-03
               1.2175852142981872E-03
               6.6513506843480662E-04
              -8.6909840940141609E-04
               1.9830477142495213E-04
              -7.5661941789253767E-04
              -2.5005586276122043E-04
              -7.9951766667194987E-05
              -4.9252260270385905E-04
               1.4782029243068530E-04
              -6.2348655988710719E-04
               9.9011240487655657E-04
               4.1461244633731961E-04
              -1.9214710382728291E-04
               1.0839631261030961E-03
               2.0918386813328464E-03
               2.8254352454405620E-04
               3.3303245954997589E-05
               8.0971104640250756E-04
              -1.0834430788453345E-03
              -2.2288282832822444E-03
               9.1744897465788800E-06
               7.8165424977405865E-04
               4.1756473275901594E-04
              -1.4028918038227597E-04
              -6.1368950195094603E-04
               1.0888462796698952E-03
              -5.5897499116040132E-04
              -1.5215594019302018E-04
              -3.7066853933344747E-04
              -2.0501913503728979E-05
              -4.2496349954793968E-04
              -4.5408749820845978E-04
               1.1590163569735756E-04
               3.9335876819569348E-04
              -8.6006798212733882E-04
               7.2593496558530303E-04
              -7.5146805851514578E-04
              -1.2680537729307129E-04
              -1.0988060880884694E-03
              -1.6634779561760154E-04
              -1.2288142579747201E-03
               1.6220853167638830E-03
              -2.2570122007434567E-03
               3.8463139560669548E-04
               8.7256475057186783E-04
               1.7901623965974887E-05
               3.5308588896660676E-04
               8.6695495570786714E-05
              -2.4864334218646330E-04
               3.3664118722568671E-04
               1.1120421110299662E-03
               9.0640309229478365E-04
              -1.1361687009995279E-04
              -4.8161813308117386E-04
               1.9202548161015285E-03
              -1.0873992696278521E-03
              -2.8286826410836986E-03
               3.9033657085435893E-04
              -7.2911633597509727E-04
              -2.5405572093177729E-03
              -4.8039356350641099E-04
              -6.6080994616870691E-04
               2.8844977798300267E-03
               5.2087799549289785E-04
               1.0954070747095253E-03
               6.2343233916053932E-04
               6.2419709737036069E-05
               1.7279633675427060E-03
               4.5557930053295519E-04
              -7.8709805220428914E-04
              -2.8843948706244884E-04
              -3.1377752484948907E-04
               3.8009076902214927E-04
              -8.8670495461402551E-04
               9.2025536438200615E-04
               1.3786732943020131E-03
               1.4592756248008954E-04
               3.0184992435035394E-03
              -9.0740211513619579E-04
              -1.5032042502628757E-03
              -2.1459860441414235E-03
              -1.9257049721494906E-03
               7.4743009122037771E-04
               1.6601604665930634E-03
               8.4327711971306251E-04
               8.8158198105942195E-04
               4.0623775238826931E-03
               3.1044816060233427E-03
              -1.7021171654701159E-03
               1.1303121270818260E-03
               2.2485403685613194E-04
              -1.9768432292270109E-03
               1.5716828051522739E-03
               5.6553946114426025E-04
               3.9124032371997493E-04
               1.4411691844311652E-03
              -4.1835583012454070E-04
              -7.5925824138203465E-04
              -6.8611479296514974E-04
               1.3700475130750268E-04
               1.6527609578185224E-04
              -6.5576150675724485E-05
              -7.0379893498807411E-04
               3.3011179087816690E-04
              -7.5766138107623748E-04
              -2.0337354175813524E-03
               1.9654478748921196E-03
              -1.4468289340994821E-03
              -1.0743577335333850E-03
               9.0046878043421462E-04
              -8.3836066837100065E-05
              -2.1787517392273442E-04
              -5.6709300986580401E-05
              -1.4168408827524518E-03
               1.3995040547944320E-03
              -2.0102743457409457E-03
               1.4079550034934592E-03
              -1.1718891777582488E-04
              -1.4136490589295057E-03
              -9.2110700678628107E-04
               1.8902258366691654E-04
              -2.0337251930855342E-03
               2.4504397541383824E-03
               1.2693911334084489E-04
              -1.6648041104103299E-03
              -3.2275224465828263E-03
               2.2011179749118286E-03
              -1.1188672059613454E-03
               1.5367813863037055E-03
               6.8974886505550239E-04
               2.7967269507547083E-05
              -1.4379380143571614E-03
               2.1829807521558560E-03
               9.9388234305122390E-04
              -2.3136069065277211E-03
               5.8108076884535076E-04
               2.2534243017001171E-04
              -2.2337117608796937E-03
              -1.4543669186056669E-03
              -1.2879115647848702E-05
               7.1921291796695223E-04
              -4.5327444945419368E-04
              -6.4237575855732496E-04
              -7.9889602552542455E-04
              -1.6122247199730952E-03
              -4.5635212017379343E-04
              -1.4920287676889756E-03
               8.2864227723845722E-04
               3.4339735859119467E-04
               4.5302880074393293E-04
              -2.7824821807109633E-03
               2.4840709171481947E-03
               6.7659019938165672E-04
               2.3149638950363642E-03
              -2.6970178141736274E-04
              -6.5430367264643802E-05
               5.0138913845382450E-06
               1.2907783708716748E-03
              -2.7000156610245101E-04
              -4.1447500808774952E-04
              -7.6060769874642645E-04
               7.4863619762954457E-04
               2.4101293477434059E-04
               1.6436931753596861E-03
              -7.6803100264540979E-04
              -1.0698168386858689E-04
               6.9397433128082426E-04
              -1.1647041787937315E-03
               4.5052882218120605E-04
              -1.1800141858106558E-03
               7.5353817367171893E-05
              -2.5584730027595984E-03
               9.9377071701313349E-04
              -2.3489697017804858E-04
              -1.0460112548256100E-03
              -1.3402853639124422E-03
               1.4259913714211227E-03
              -1.0961106363077666E-03
               8.0057087674944281E-04
               1.2995242674296015E-03
              -2.4227724106206283E-04
              -2.1995103358307044E-03
               1.5967081242050749E-03
               3.4804543630781367E-04
               9.8472884780046919E-05
               4.4662158811883956E-04
              -1.0370706228405790E-03
               2.8223031385193095E-04
              -1.2796479900449998E-04
              -6.4597840023281950E-04
              -2.4129463874793949E-03
              -3.6298604237695756E-04
              -8.7234108439929420E-04
              -9.9066584276048071E-04
               1.7087508946392056E-04
               1.3477746569842870E-03
              -1.3468569562699380E-03
              -1.7771222426514403E-03
               6.9463513493401468E-04
              -5.2716578082630467E-04
               5.9706339427329327E-04
              -6.4779509934818631E-04
               4.0743011668644465E-04
              -1.9064486784283277E-04
              -1.7445706030744777E-03
              -4.8624584653655034E-04
               5.9113447857526275E-04
              -8.8829629037108222E-04
              -8.2416709962216772E-04
               2.1507279202106493E-03
               2.5993031228550368E-04
              -1.1419293014070836E-03
              -2.4284077461886682E-03
              -2.4003822177596054E-03
               1.6086786658912348E-03
              -1.2560112182249375E-03
              -2.3862034280493828E-03
               6.1663317132110759E-04
               2.5409356874118712E-04
              -4.2649516833951229E-04
               2.1904623564590180E-05
              -5.3242506971042645E-04
               9.1327123223420756E-04
              -2.0166801996391245E-04
               8.2894393030351495E-04
               3.2758085252203271E-03
               4.0414716733944221E-04
              -9.6943502476494925E-06
              -7.5090523786616931E-04
               8.4869072393100513E-04
               5.5948333681900293E-03
              -1.0826798447702856E-03
              -1.0055093316050081E-03
               2.3120416396350420E-05
              -1.4635350875751301E-03
               1.4717667463954371E-05
              -3.3426733346985000E-04
              -4.5289985626586668E-04
              -1.5013144141781974E-04
               1.2286348465907100E-03
              -9.0513471955161614E-04
              -8.0809635642736205E-05
               3.7892381375395832E-05
              -7.3796343301451336E-04
               2.3732323823158698E-03
               6.9933065695836679E-04
              -1.5120314879204315E-03
               1.1073493912351897E-03
              -2.0956827778071327E-03
              -3.7575235953753763E-04
               2.4962487634917416E-03
              -7.6061907176918741E-04
               4.3033614223395716E-04
              -1.0360059020521936E-03
              -8.8720821949920289E-04
              -1.0329400332254632E-03
              -1.5838299059271386E-04
               2.2792185346064606E-03
              -1.0293615310911178E-03
              -6.8055589363295377E-04
              -3.3059418117120194E-05
              -6.4835396629239262E-04
               8.0179216788515170E-04
               1.7431182949175124E-03
              -2.1147123172267314E-04
               3.1809030670756672E-04
              -4.8552277352998166E-04
               4.7802753096885147E-04
               4.8175329752221966E-04
              -2.2481231166056547E-03
              -1.9201498848846687E-04
              -4.6968494827318334E-04
              -6.4836648758294694E-04
              -3.4310629336138264E-04
              -7.7113935493725635E-05
               1.2364231138023142E-05
              -5.3543992104950855E-04
               1.7290151334380438E-03
               1.9747834380140794E-03
               3.6954232726761085E-04
              -1.4175607942100267E-03
              -2.4608411334125918E-03
               1.7969679155677913E-04
              -9.6899114670409776E-04
               6.2447636035005698E-04
              -9.8270916834350972E-04
               7.6914539055003821E-04
               3.9383693858798116E-04
              -8.0102596970827670E-05
              -1.4450638267741855E-03
               2.4454200661288915E-05
               3.7995141593948393E-04
               1.1345056551262292E-03
               1.4156276531483085E-04
               5.9970061567387071E-04
              -2.3285975850767266E-04
               4.2162780062391010E-04
              -1.5028685853448761E-04
               8.2544681215914546E-04
               1.2606571765409692E-03
              -5.7966702517511098E-04
              -2.0268601024330582E-03
              -8.2312609632605659E-04
               8.6126585031678536E-04
              -4.7314727294181416E-04
              -3.1195810184282634E-03
               2.7573738426920355E-04
               1.5042802835735294E-03
               7.8370832819990126E-03
              -2.3656660941427854E-03
               8.2113767341691316E-04
              -1.7096962487344566E-03
              -1.3785130334285458E-03
               1.8671743556196636E-03
               1.7451897541942302E-04
               9.2850422681119344E-04
              -2.5349896942519459E-03
              -3.8110154704391126E-04
               9.5200498398566953E-04
               2.8560975525608275E-05
              -8.5694598690081911E-04
               1.1548057302787527E-03
               3.2742611611157615E-03
               2.5913865014212376E-03
              -1.2209307610309816E-03
              -1.1357838299837629E-03
         &END THERMOSTAT_ENERGY
         &RNG_INIT
Wiener process for Thermostat # 1        1 F T T   9.0462221700852630E-01        2264670536.0        4165435508.0         723170819.0        3260507562.0        1492388480.0         283332956.0             12345.0             12345.0             12345.0             12345.0             12345.0             12345.0             12345.0             12345.0             12345.0             12345.0             12345.0             12345.0
Wiener process for Thermostat # 2        1 F T T  -4.4519707353921528E-01        1101318009.0         234658991.0         199393164.0        4280160480.0        3611198860.0         882091878.0        3692455944.0        1366884236.0        2968912127.0         335948734.0        4161675175.0         475798818.0        3692455944.0        1366884236.0        2968912127.0         335948734.0        4161675175.0         475798818.0
Wiener process for Thermostat # 3        1 F T T   1.9084232403362583E-02        4290586919.0        3142733555.0        2989820449.0        1475696899.0         987410357.0        3224677422.0        1015873554.0        1310354410.0        2249465273.0         994084013.0        2912484720.0        3876682925.0        1015873554.0        1310354410.0        2249465273.0         994084013.0        2912484720.0        3876682925.0
Wiener process for Thermostat # 4        1 F T T   9.0988245983872340E-01        2596959722.0         592242608.0        3723836756.0        3825941198.0        2379508957.0          82120142.0        2338701263.0        1119171942.0        2570676563.0         317077452.0        3194180850.0         618832124.0        2338701263.0        1119171942.0        2570676563.0         317077452.0        3194180850.0         618832124.0
Wiener process for Thermostat # 5        1 F T T   1.1662462543714081E-01        4185205495.0        2998713803.0        4117317206.0        4023282432.0         706091729.0          75399510.0        1597262096.0        3906379055.0        3312112953.0        1016013135.0        4099474108.0         275305423.0        1597262096.0        3906379055.0        3312112953.0        1016013135.0        4099474108.0         275305423.0
Wiener process for Thermostat # 6        1 F T T  -4.1354215120834475E-01        3674523732.0        1182116984.0         609749417.0        1240104095.0         943515761.0         450343541.0          97147054.0        3131372450.0         829345164.0        3691032523.0        3006063034.0        4259826321.0          97147054.0        3131372450.0         829345164.0        3691032523.0        3006063034.0        4259826321.0
Wiener process for Thermostat # 7        1 F T T  -8.4616136539542686E-01         325483742.0         738198977.0        1919153808.0        1754777596.0         340915189.0         313288289.0         796079799.0        2105258207.0         955365076.0        2923159030.0        4116632677.0        3067683584.0         796079799.0        2105258207.0         955365076.0        2923159030.0        4116632677.0        3067683584.0
Wiener process for Thermostat # 8        1 F T T  -4.1478227316227828E-01        2161735526.0         481256180.0         205471170.0        2144766994.0        3680005391.0        2077412695.0        3281794178.0        2616230133.0        1457051261.0        2762791137.0        2480527362.0        2282316169.0        3281794178.0        2616230133.0        1457051261.0        2762791137.0        2480527362.0        2282316169.0
Wiener process for Thermostat # 9        1 F T T  -1.4314112949076603E+00         845018747.0         488333159.0        1873386589.0        3435284925.0        3254632723.0        2309306801.0        3777646647.0        1837464056.0        4204654757.0         664239048.0        4190510072.0        2959195122.0        3777646647.0        1837464056.0        4204654757.0         664239048.0        4190510072.0        2959195122.0
Wiener process for Thermostat # 10       1 F T T  -8.6397873497310373E-01        2035130629.0        3704233821.0        3925324663.0        2331523315.0        2473960698.0        1638785127.0        4215590817.0        3862461878.0        1087200967.0        1544910132.0         936383720.0        1611370123.0        4215590817.0        3862461878.0        1087200967.0        1544910132.0         936383720.0        1611370123.0
Wiener process for Thermostat # 11       1 F T T   3.0337989552589278E-01        3661115097.0        1218198360.0         938489964.0        2793914845.0        3186483521.0        4020673942.0        1683636369.0         362165168.0         814316280.0         869382050.0         980203903.0        2062101717.0        1683636369.0         362165168.0         814316280.0         869382050.0         980203903.0        2062101717.0
Wiener process for Thermostat # 12       1 F T T   9.7518199673176065E-01        2163140362.0         139905301.0         428460427.0        2897529318.0        1353483470.0        2307077096.0         272317999.0         166758548.0         310112982.0         201045826.0        1680231254.0         118290799.0         272317999.0         166758548.0         310112982.0         201045826.0        1680231254.0         118290799.0
Wiener process for Thermostat # 13       1 F T T   7.9674095597176819E-01        4170274746.0         648041340.0        3950370685.0        2225411874.0        2618411997.0        2643048657.0        2245755202.0        1652682525.0        2865544364.0         721509566.0         209733568.0         592362218.0        2245755202.0        1652682525.0        2865544364.0         721509566.0         209733568.0         592362218.0
Wiener process for Thermostat # 14       1 F T T   8.4772780948352211E-01        3697169822.0        1418547238.0        4074567648.0        3559721631.0        1778012183.0        2982661617.0        3003961408.0        3529909391.0          14538032.0        3603919910.0         566682685.0        1235016484.0        3003961408.0        3529909391.0          14538032.0        3603919910.0         566682685.0        1235016484.0