 # Version information for this restart file 
 # current date 2015-03-10 10:19:47.747
 # current working dir /home/dlambrecht/bja39/cp2k/aimd
 # Program compiled at                              Fri Feb 27 09:44:54 EST 2015
 # Program compiled on                                login0a.frank.sam.pitt.edu
 # Program compiled for                                                    Frank
 # Source code revision number                                       git:9520686
 &GLOBAL
   PRINT_LEVEL  LOW
   PROJECT_NAME WATER
   RUN_TYPE  MD
   WALLTIME 1800
 &END GLOBAL
 &MOTION
   &GEO_OPT
     OPTIMIZER  BFGS
     MAX_ITER  100
     MAX_DR     3.0000000000000001E-03
     &BFGS
     &END BFGS
   &END GEO_OPT
   &MD
     ENSEMBLE  NVT
     STEPS  1000
     TIMESTEP     4.9999999999999994E-01
     STEP_START_VAL  49
     TIME_START_VAL     2.4500000000000014E+01
     ECONS_START_VAL    -1.1023558357478485E+03
     TEMPERATURE     3.0000000000000000E+02
     &THERMOSTAT
       TYPE  GLE
       REGION  MASSIVE
       &GLE
         NDIM  5
         A_SCALE     1.0000000000000000E+00
         A_LIST     1.8595758612559999E+02    2.7263853498399998E-01    1.1526100454610001E+01   -3.6414578262600003E+01 \
             2.3173375816020001E+02
         A_LIST    -2.7809524712060002E-01    8.5951591808710006E-05    7.2189048017650004E-01   -1.9844539343859999E-01 \
             4.2409257583420001E-01
         A_LIST    -1.4825808131210000E+01   -7.2189048017650004E-01    1.3590902121280000E+00    5.1498896280349999E+00 \
            -9.9949268450990001E+00
         A_LIST    -1.0372189126880000E+01    1.9844539343859999E-01   -5.1498896280349999E+00    2.6661910891169999E+01 \
             1.1507715495310000E+01
         A_LIST     2.1801346360420001E+02   -4.2409257583420001E-01    9.9949268450990001E+00   -1.1507715495310000E+01 \
             3.0958394565589998E+02
         &THERMOSTAT_ENERGY
              -1.5100876565784069E-03
              -2.5815427440328424E-04
               6.1341106002017905E-04
              -9.9129131315462511E-04
              -1.2846474152651214E-03
               2.2762008892706310E-03
               3.3022604013130662E-04
               2.5689233109426977E-03
               9.2081785038240706E-04
               1.5293579359478881E-03
               2.4556286456150816E-04
              -4.0004951647591833E-04
               2.9429051478738607E-03
              -6.4972630480030868E-04
               9.1521781676233828E-04
               3.4442861766167531E-04
               1.0492667264440433E-04
               1.1017242602155495E-03
              -3.0048358684237194E-04
              -3.1962848840829468E-03
              -2.4949590589244577E-04
               1.3599782480136755E-03
              -5.4092044485245280E-04
              -8.0023423153438827E-04
              -4.5381708510366134E-04
               9.4437854003704238E-04
               8.8155031502126237E-04
               2.2313718766839411E-05
               1.5648180965196815E-03
               1.1389315144260746E-03
               1.4753047786686695E-03
              -1.6890272362192170E-04
               1.8541330453407346E-04
               6.7952445383334041E-04
              -4.7260090929382905E-03
               1.0157461324887451E-03
               8.3500945150258646E-04
              -4.2613318849778420E-04
              -1.3512954855875273E-04
              -2.9968436545196691E-04
              -5.5060133546494397E-04
              -2.3128905694352023E-03
              -2.5369958598631050E-03
               2.1932025719164942E-03
              -1.5694387293986225E-03
               2.3364715827970321E-03
               5.9942363030126558E-04
              -8.4603440506781269E-04
               1.5334644051533497E-03
              -3.3708705020564982E-05
              -5.0350774042050956E-04
               4.4060685909689629E-04
              -3.0646866938139071E-04
              -6.0363965877309900E-04
              -9.8707941974018019E-04
              -8.2208886033085246E-04
              -1.2799624395689354E-04
               6.7257122413886844E-07
              -1.9746315771843647E-03
              -1.3070948854609380E-03
               9.3939552271598658E-04
               1.5573084736997312E-03
               3.9520308713229921E-05
               1.4901705919788653E-03
              -6.8977772652664476E-04
               8.4121927160852922E-04
              -1.7073970202573273E-05
              -1.9312749726450927E-04
               1.4866655877135923E-03
               7.7926223081956319E-04
              -6.3960271395239663E-04
               2.6200560903442715E-03
              -1.3432878401500432E-03
               1.6089847919400070E-04
              -1.4435506065228491E-04
              -2.2061689489464415E-04
               1.1716746213852925E-03
               1.5188167127310032E-03
               4.3858783814657298E-03
              -8.0187727771838756E-04
               7.5859614326968520E-05
               1.6130142419752493E-04
               3.3974397819267366E-04
              -4.7161412217067785E-04
               6.0664719003322243E-04
               9.2794361848569558E-04
              -2.8163610164175855E-03
              -9.3388391055375690E-04
              -1.1535832812810844E-04
              -3.8529407900304456E-04
               2.1649037592096714E-03
               3.5530580750004750E-03
              -2.2504275214445071E-03
              -1.0874454162474137E-03
              -5.6611964704525247E-04
              -7.9997382768614504E-04
              -5.2192650204832200E-04
              -1.2059693820514930E-03
               1.1630585572844601E-03
               1.3319409485619120E-03
              -5.8388207923827033E-04
               2.6302936028660336E-05
              -1.2759939923891188E-03
               2.0767461973866812E-03
               5.4738328180773397E-04
               1.8734489784635201E-03
               4.6832947282592178E-04
              -5.6497909550076459E-04
               9.1877322360881235E-04
               4.0103496153468611E-04
               5.0034244480361514E-04
               6.0905075181176961E-04
               1.3305459628416027E-03
               8.8266146770310245E-04
               9.8868346947361490E-04
               5.1296628886661542E-04
              -6.4759647597399947E-03
               1.2163883990148454E-03
               7.7784761175074947E-04
               9.6119850103753342E-04
              -4.4740612829620468E-04
              -1.2769977415686121E-03
               2.2423835497121678E-03
              -4.7526511901555658E-04
               3.0770265970499558E-04
              -2.1093959446060904E-03
               5.0133160744741922E-05
               2.1330971870726781E-03
              -1.3339043607955565E-03
              -3.4486595283494742E-04
              -2.9882244615657637E-03
              -2.4871347946498136E-03
               1.0581032308339255E-03
              -7.1092971898395452E-04
              -1.2719473297434550E-03
              -2.6044371715610638E-04
              -1.1461043899078050E-03
               2.0468698021443310E-04
               7.2413609279914110E-04
               6.2799763004762945E-04
               3.8613167123516972E-03
               5.5858546486174145E-04
              -1.2928065567089175E-03
              -3.8317148321143112E-04
               3.8741486957322374E-04
              -7.8059502522756410E-04
               3.7178275939156740E-05
              -3.7529587032044548E-04
              -5.3556106597489139E-04
               9.8830393728706139E-04
              -1.0970248967718706E-03
              -1.6979836711134705E-04
              -2.5977368465380629E-04
               9.4101768147735322E-04
               3.2345846092594665E-04
              -3.6803237586076847E-04
               3.5973347980089475E-04
              -3.3022887058968157E-04
               8.0565054337334077E-04
              -2.9548947867314291E-04
              -7.6720298277307628E-04
              -9.5388189811449419E-04
              -1.2922895309245978E-03
               4.4850087534927793E-04
               1.9788144323444347E-03
               5.1393449838915879E-04
               4.5869711455218088E-04
               3.9236028616922755E-04
              -3.2764814636343257E-03
              -2.0824754165406237E-04
               8.8584517888686822E-04
              -2.0154792494292070E-05
               1.9853058319670034E-04
               1.3524784744157648E-04
               1.9958473510582497E-05
              -3.3855060952458918E-04
              -1.8750258226907395E-04
              -1.7377940299191852E-03
               5.2099379902054220E-04
               2.0218774972837806E-03
              -5.5925170760625894E-04
               6.1779286408275710E-04
               7.6602952737104602E-04
               1.4561865045895498E-03
               4.4204844411325356E-04
               2.4963580303629903E-04
              -7.9520332040009900E-04
              -2.2487173514283075E-04
              -3.3710856535540709E-03
               9.7649495255322440E-04
               2.1246898751281474E-04
               7.7898988900113996E-05
               1.8517171825795308E-03
              -1.7517751462129774E-03
               1.1655752217138820E-04
              -3.8929911106712670E-03
              -1.7729830012290428E-04
              -5.0392583124484478E-06
               1.7835013711722526E-04
               4.5549965371123156E-05
               7.6531376070741849E-04
               2.1425455205128282E-04
               1.3953448458036088E-03
               9.3164069648425738E-04
              -4.5068138119969342E-03
               4.2460313988284615E-05
               1.4338092413656769E-03
               1.4345835608956859E-04
               1.0113830286202633E-03
               3.0487295737640272E-03
              -6.3104750471649324E-04
               8.8241273984997518E-04
               2.8849410940012940E-03
              -2.1619849101573753E-03
               5.3234634530716822E-04
               1.8453144536934828E-03
              -5.7325855325941874E-04
               6.4527378539624362E-04
               5.9901561627313912E-04
              -5.1273377731534862E-04
               2.6737666922872260E-03
              -6.4575616872024908E-04
               1.1128935146861351E-03
               3.3816030539574515E-04
              -1.6902432808194674E-05
               5.7709313385867521E-05
              -8.0940358882351598E-04
              -2.7650305613403582E-03
               5.0481393500163255E-04
               3.0580779579205955E-03
              -3.6604023174763734E-06
               1.2190987771732752E-03
               4.9657171123748765E-04
               1.8649206257502347E-04
               2.8420600240124311E-04
              -5.2727181236717261E-04
              -1.6775746934411565E-03
               9.3310068496522611E-04
              -6.1205876272388640E-04
               6.0953369062982470E-04
               9.4492468270528139E-04
              -2.1593872022423206E-03
               1.8803222078548829E-03
               1.3500214179977136E-03
               8.5270336319043867E-04
              -1.3881640850320597E-04
              -1.9732060608056704E-04
               1.7650031731918949E-03
              -6.2550738860985472E-05
              -3.0382185681917715E-03
               7.6286772014323397E-04
               3.4801825940140635E-04
              -8.0779086511734426E-04
               1.8544187575551344E-04
              -9.4867850237299422E-04
               1.2515029392703406E-04
              -7.2786188851472089E-05
              -3.2919488230240382E-04
               2.1675733073762556E-04
              -1.1843941084551343E-03
               1.3617658711453412E-03
               7.6693965665458814E-04
              -2.6680566718463670E-04
               1.1673398506036479E-03
               1.7706938199543241E-03
               2.6368674387053820E-04
              -1.1179879028232476E-05
              -2.8554255739211788E-05
              -1.0385590687892862E-03
              -2.1551977564785037E-03
              -1.3330160050564849E-04
               7.9639856722691531E-04
               8.2233185040893981E-04
              -7.3792475060720209E-04
              -5.6068277486135787E-04
               8.8754177149532026E-04
              -9.8194276894148359E-04
              -1.8505420620594886E-04
              -4.6486428523891506E-04
              -4.6028555958278728E-04
              -2.7668058338035359E-04
              -5.2803914420195409E-04
              -5.1182974724864365E-06
              -3.0856564720656797E-04
              -1.0715278590748682E-03
              -1.3388464138193762E-03
              -1.4345263216753467E-03
              -1.1433408640631437E-04
              -8.7866305475399259E-04
               3.1191752111000214E-04
              -4.9637684268264445E-04
               2.3949056166404394E-03
              -1.7796424014546255E-03
               8.1584708276963194E-04
               1.7367946795062203E-04
              -2.6676482083262719E-04
               3.3117441276133818E-04
               5.3949388920891553E-05
              -1.9843551440518856E-04
               2.2686530668246467E-04
               1.0743691726901878E-03
               6.4998902538958520E-04
              -1.4338572582650941E-04
              -9.3908524528049089E-04
               2.4448692211835980E-03
              -1.0706994551087142E-03
              -1.1722655624102577E-03
               6.6410393731508555E-04
              -5.2020776199254042E-04
              -2.2727134367164560E-03
              -5.6945874750277659E-04
              -3.1245312431126015E-04
               2.8963876561342141E-03
               4.2543945141352679E-04
               9.4864715960768151E-04
               5.8960677907325047E-04
              -4.7763330420637253E-04
               1.6399528337541695E-03
              -5.6719434418296363E-04
              -6.3869027287951209E-04
               1.2556056828303151E-04
               1.2456856636210258E-03
               2.5654482871574527E-04
              -1.0155959958571322E-03
               1.2127690083279254E-03
               1.4585413790325450E-03
              -3.6157112485362872E-04
               2.4719034489341166E-03
              -1.0296271302069398E-03
              -1.5241660613529967E-03
              -1.9563227958011038E-03
              -8.7456711490364598E-04
               5.6873086015623838E-04
               1.6613901820737547E-03
               8.8200034734501850E-04
               9.6987816302608761E-04
               4.1439709119379898E-03
               3.1605370250270982E-03
              -1.5906656751244169E-03
               1.1887876439206360E-03
               3.7520677032190891E-04
              -1.2821809677582741E-03
               1.8604659673235196E-03
               5.6130059245987341E-04
               5.8709751934646033E-04
               1.4112522833085830E-03
              -4.0509210973994653E-04
              -8.7427908686861793E-04
              -8.5934027804203221E-04
               4.5508588794694767E-04
               2.2774657306712958E-04
              -2.4902132450647327E-04
              -6.4182510797994123E-04
               3.3456212097537501E-04
               1.1101420573506896E-04
              -1.9886495265858317E-03
               1.3760395528162922E-03
              -2.6522107342186099E-03
              -8.4635415559734697E-04
               1.6002821823071396E-03
              -1.1459535260892017E-04
               1.6292464560455818E-05
              -9.4827922891449945E-04
              -1.4567742326444236E-03
               1.5999663628920103E-03
              -1.0610111616705163E-03
               1.2322480959956359E-03
              -2.2792862727797318E-04
              -1.4143500399254262E-03
              -9.7893154159867687E-04
               2.8885554873809698E-04
              -9.2586663256119430E-04
               2.0878487704394971E-03
               1.5236790560095822E-04
              -1.6476172193496440E-03
              -3.1766067418810937E-03
               2.2264002552964558E-03
              -4.9540786989538642E-04
               1.3921968909604496E-03
               1.0508973602298419E-03
              -1.2603820249255281E-04
              -1.8932487277098086E-03
               2.3979537357460951E-03
               1.2511945596287706E-03
              -2.5033926164097801E-03
               7.1848700294883591E-04
               3.8015477937749121E-04
              -1.6118355274058810E-03
              -1.4534450800513922E-03
               8.2555054633830512E-05
               7.1577025857522082E-04
              -7.7879294861108871E-04
              -7.3157927995644528E-04
              -8.8652341490221833E-04
              -1.5865150883130317E-03
              -5.3439187258700780E-04
              -1.3912109997427310E-03
               7.6861204564225116E-04
               7.5309406346650820E-05
               4.4158058873548404E-04
              -2.2385159513884866E-03
               2.4379776628771148E-03
               8.1439246460933261E-04
               2.4483208853004067E-03
              -1.9570187994837038E-04
              -2.3363131274051592E-05
              -1.3547266038751959E-06
               1.2857670412415097E-03
              -5.3605643465380625E-04
               4.9989034403912457E-06
              -1.0960184035345023E-03
               9.2608751334973015E-04
              -4.6108383048919959E-04
               1.7357136226562161E-03
              -9.2871596460526197E-04
              -6.8604580601554666E-04
               6.2763900757051381E-04
              -9.3266897625299229E-05
               1.0447290660930123E-04
              -1.0535777637844137E-03
               1.7177824413088017E-03
              -2.2466535771296300E-03
               9.6504853577484867E-04
               6.0858417536203819E-05
              -1.0743096576065916E-03
              -2.3434000706220471E-03
               2.0660174964041238E-03
              -1.2384507920488251E-03
               8.6521604432934155E-04
               1.2818985720148266E-03
              -5.2177510373654186E-05
              -2.0191436968856513E-03
               1.6113681882787638E-03
               1.1546871355084904E-03
               1.0471312028527458E-04
               3.3543805291141046E-04
              -5.6527551138261872E-04
               2.7505180193427453E-04
              -3.9174251744806464E-04
              -5.1889998372475397E-04
              -1.4913359413530579E-03
              -2.3246975874302540E-04
              -8.7701541370511311E-04
               8.6289011356209923E-04
               1.3360191653745347E-04
               1.0014938914194652E-03
              -2.2196988717068065E-03
              -2.5002455445349457E-03
              -1.7102574316727072E-04
              -1.5433924647748508E-03
               5.9634261293050141E-04
               8.4675160783859085E-05
               2.7080467642580169E-04
              -1.0098492321683351E-03
              -1.5351502095458614E-03
              -3.8842263773461471E-04
               8.6249308397498266E-04
               7.3688216855035912E-04
              -1.1335209011305602E-03
              -2.0414516386994121E-03
              -1.0069022845334739E-03
              -1.2926143441600831E-03
              -3.2732448983540333E-03
              -2.5455570540655610E-03
               1.9050087387896481E-03
              -1.0126453909299377E-03
              -2.2717023204663683E-03
               5.6290537890434263E-04
               5.6621360687822116E-04
               8.5596336445716524E-04
               1.3131273891906978E-05
              -3.8079306229737980E-04
               3.6260577304872942E-04
              -2.9250208642775898E-04
              -5.7379570506644966E-04
               3.4567219638691952E-03
               2.2100107318609916E-04
              -4.7009417254179124E-04
              -7.3778436621993275E-04
               8.3851295431058316E-04
               5.6303994336374596E-03
               4.3529928975064697E-04
              -5.8495502866885967E-04
              -5.0234892727066160E-05
              -7.8806849918811170E-04
              -3.5878686509730693E-06
              -4.7379542504260772E-04
              -7.3951283173862893E-04
              -2.8309868295670629E-04
               1.4471349319854605E-03
              -7.7704037368715468E-04
              -4.2259359885809053E-04
              -5.7633814489718347E-04
              -1.9233826616854935E-04
               2.4378816361037103E-03
               8.1694118483491025E-04
              -1.7594705589604209E-03
               3.3038784774037651E-04
              -1.6516020188008800E-03
               1.1376751448328038E-04
               2.5616658855258153E-03
              -4.0442330512661169E-04
               5.2859926417249349E-04
              -1.0883141765987887E-03
              -1.5644134996792647E-03
              -1.0145138727365574E-03
               1.9380279777862558E-04
               2.0533502536993109E-03
              -9.6089601296618372E-04
              -5.0860278038698976E-04
              -6.3557332189746740E-08
              -7.0986250654357761E-04
               3.7350249976825592E-04
               2.0068583186586718E-03
              -3.0030360299747967E-04
               3.3674583409414938E-05
              -3.1964388349156505E-04
               4.9275725414326169E-04
               1.4813358018551596E-03
              -2.8408445466088753E-03
              -3.2303564961930789E-04
              -3.8283749343355744E-04
               2.2153128228131829E-04
              -1.9338802628645401E-04
              -1.3504823836060783E-04
              -2.7890258698556783E-04
              -4.0186445206558645E-04
               1.7184376767704122E-03
               2.3535455741868277E-03
               4.1579315508051161E-04
              -1.3056603253359109E-03
              -3.0603975038062353E-03
               1.8300652840270610E-04
              -8.1930483900046944E-04
               6.1074136574850910E-04
              -7.1553079777629416E-04
               4.4065895922420801E-04
               7.4475256316191858E-04
               1.2749755609075408E-04
              -5.8917591850287580E-04
               2.1974157182073072E-05
               2.3194770659738860E-04
               1.3317335373633928E-03
              -2.1430839448380112E-04
               7.0075238547728433E-04
              -5.4352187476532023E-04
               3.3126692421780806E-04
              -5.9011287244646127E-05
               6.6908387117674414E-04
               9.1625946695085786E-04
              -5.5994537607269702E-04
              -2.5547571276104374E-03
              -2.8587735157986708E-04
               1.1411938118107434E-03
              -3.6891794527150101E-04
              -3.2447454666480659E-03
               5.2643830140780871E-04
               2.2091654361446446E-03
               7.8326072649009190E-03
              -1.6413159515300763E-03
               8.4911836838609262E-04
              -6.4438290837212555E-04
              -1.3653731022025010E-03
               1.0401899024736340E-03
              -1.4349479199984392E-03
               1.2410745440783154E-03
              -2.9696378806220022E-03
              -4.3616974208410432E-04
               9.6007908165036265E-04
               2.1711578271575482E-04
              -1.1479103179221394E-03
               1.5163246306657916E-03
               2.7752078551082759E-03
               1.7586373353792948E-03
              -1.6906315730260239E-03
              -1.5701459390436764E-03
         &END THERMOSTAT_ENERGY
         &RNG_INIT
Wiener process for Thermostat # 1        1 F T T   1.0936724050145761E+00        2578022064.0        3581968593.0        3899855642.0        3051313500.0         159273389.0        3166768891.0             12345.0             12345.0             12345.0             12345.0             12345.0             12345.0             12345.0             12345.0             12345.0             12345.0             12345.0             12345.0
Wiener process for Thermostat # 2        1 F T T  -7.3443202856490208E-01         606273233.0        2267423169.0        4091246328.0        3419974764.0        1635513973.0        3496798509.0        3692455944.0        1366884236.0        2968912127.0         335948734.0        4161675175.0         475798818.0        3692455944.0        1366884236.0        2968912127.0         335948734.0        4161675175.0         475798818.0
Wiener process for Thermostat # 3        1 F T T  -6.7142175702043588E-02        1855478097.0        1883520320.0        2683045888.0        3028905694.0        4158429517.0        1870039607.0        1015873554.0        1310354410.0        2249465273.0         994084013.0        2912484720.0        3876682925.0        1015873554.0        1310354410.0        2249465273.0         994084013.0        2912484720.0        3876682925.0
Wiener process for Thermostat # 4        1 F T T   4.8670571776696708E-01        2498251857.0        2494389803.0        3010027567.0         487879323.0        3329284767.0        1395919873.0        2338701263.0        1119171942.0        2570676563.0         317077452.0        3194180850.0         618832124.0        2338701263.0        1119171942.0        2570676563.0         317077452.0        3194180850.0         618832124.0
Wiener process for Thermostat # 5        1 F T T  -1.7294414523521058E+00        1148002428.0        1202250921.0        2000285640.0        4270067642.0        3699338601.0         567674359.0        1597262096.0        3906379055.0        3312112953.0        1016013135.0        4099474108.0         275305423.0        1597262096.0        3906379055.0        3312112953.0        1016013135.0        4099474108.0         275305423.0
Wiener process for Thermostat # 6        1 F T T  -9.7772468536520318E-01        1672360598.0        3774876252.0        1234959793.0        2380473462.0        2270718001.0        2478957609.0          97147054.0        3131372450.0         829345164.0        3691032523.0        3006063034.0        4259826321.0          97147054.0        3131372450.0         829345164.0        3691032523.0        3006063034.0        4259826321.0
Wiener process for Thermostat # 7        1 F T T  -1.4475308179967823E+00        1873230663.0        3919073638.0        2999533156.0        1218577333.0        2184259885.0        3976896370.0         796079799.0        2105258207.0         955365076.0        2923159030.0        4116632677.0        3067683584.0         796079799.0        2105258207.0         955365076.0        2923159030.0        4116632677.0        3067683584.0
Wiener process for Thermostat # 8        1 F T T   3.7680048676565164E-01        3366074587.0        2614024260.0         527376905.0        3414241827.0         328466358.0         351263763.0        3281794178.0        2616230133.0        1457051261.0        2762791137.0        2480527362.0        2282316169.0        3281794178.0        2616230133.0        1457051261.0        2762791137.0        2480527362.0        2282316169.0
Wiener process for Thermostat # 9        1 F T T   3.0329988044973410E-01        3339116762.0        3563326185.0        1342643582.0        3130805907.0         303592359.0        3145578869.0        3777646647.0        1837464056.0        4204654757.0         664239048.0        4190510072.0        2959195122.0        3777646647.0        1837464056.0        4204654757.0         664239048.0        4190510072.0        2959195122.0
Wiener process for Thermostat # 10       1 F T T  -1.6507790419016326E+00        1842690131.0        2340558328.0        2369602408.0        1445662141.0        1275235157.0        4235913676.0        4215590817.0        3862461878.0        1087200967.0        1544910132.0         936383720.0        1611370123.0        4215590817.0        3862461878.0        1087200967.0        1544910132.0         936383720.0        1611370123.0
Wiener process for Thermostat # 11       1 F T T   9.4503293898377216E-01        3108498820.0        1943574606.0        4057155550.0         824262108.0        2374257515.0        1798138224.0        1683636369.0         362165168.0         814316280.0         869382050.0         980203903.0        2062101717.0        1683636369.0         362165168.0         814316280.0         869382050.0         980203903.0        2062101717.0
Wiener process for Thermostat # 12       1 F T T   3.2010351030058015E-01        3922411660.0         578611871.0        2946650044.0        1752085334.0        1714727046.0        2229532208.0         272317999.0         166758548.0         310112982.0         201045826.0        1680231254.0         118290799.0         272317999.0         166758548.0         310112982.0         201045826.0        1680231254.0         118290799.0
Wiener process for Thermostat # 13       1 F T T   1.4247740038239771E+00         323535221.0        1405430036.0         506123817.0        3711375661.0        3087022154.0        3078446601.0        2245755202.0        1652682525.0        2865544364.0         721509566.0         209733568.0         592362218.0        2245755202.0        1652682525.0        2865544364.0         721509566.0         209733568.0         592362218.0
Wiener process for Thermostat # 14       1 F T T  -6.8895589243020561E-01        3616135603.0        2919302969.0        3182891447.0        2102903338.0        2010150629.0        1540372286.0        3003961408.0        3529909391.0          14538032.0        3603919910.0         566682685.0        1235016484.0        3003961408.0        3529909391.0          14538032.0        3603919910.0         566682685.0        1235016484.0