 # Version information for this restart file 
 # current date 2015-03-10 10:19:43.475
 # current working dir /home/dlambrecht/bja39/cp2k/aimd
 # Program compiled at                              Fri Feb 27 09:44:54 EST 2015
 # Program compiled on                                login0a.frank.sam.pitt.edu
 # Program compiled for                                                    Frank
 # Source code revision number                                       git:9520686
 &GLOBAL
   PRINT_LEVEL  LOW
   PROJECT_NAME WATER
   RUN_TYPE  MD
   WALLTIME 1800
 &END GLOBAL
 &MOTION
   &GEO_OPT
     OPTIMIZER  BFGS
     MAX_ITER  100
     MAX_DR     3.0000000000000001E-03
     &BFGS
     &END BFGS
   &END GEO_OPT
   &MD
     ENSEMBLE  NVT
     STEPS  1000
     TIMESTEP     4.9999999999999994E-01
     STEP_START_VAL  48
     TIME_START_VAL     2.4000000000000014E+01
     ECONS_START_VAL    -1.1023558357478485E+03
     TEMPERATURE     3.0000000000000000E+02
     &THERMOSTAT
       TYPE  GLE
       REGION  MASSIVE
       &GLE
         NDIM  5
         A_SCALE     1.0000000000000000E+00
         A_LIST     1.8595758612559999E+02    2.7263853498399998E-01    1.1526100454610001E+01   -3.6414578262600003E+01 \
             2.3173375816020001E+02
         A_LIST    -2.7809524712060002E-01    8.5951591808710006E-05    7.2189048017650004E-01   -1.9844539343859999E-01 \
             4.2409257583420001E-01
         A_LIST    -1.4825808131210000E+01   -7.2189048017650004E-01    1.3590902121280000E+00    5.1498896280349999E+00 \
            -9.9949268450990001E+00
         A_LIST    -1.0372189126880000E+01    1.9844539343859999E-01   -5.1498896280349999E+00    2.6661910891169999E+01 \
             1.1507715495310000E+01
         A_LIST     2.1801346360420001E+02   -4.2409257583420001E-01    9.9949268450990001E+00   -1.1507715495310000E+01 \
             3.0958394565589998E+02
         &THERMOSTAT_ENERGY
              -1.3269173315155339E-03
              -2.3064742357446449E-04
               5.2576342327201406E-04
              -2.3678657877806283E-03
              -1.3050668047282917E-03
               2.1493908283674304E-03
               2.4864443848184308E-04
               2.7270781961858653E-03
               8.9725640899737842E-04
               1.3607653009431251E-03
              -2.6905283217722490E-04
              -4.5939236564178528E-04
               2.9064499317226350E-03
              -2.2582043030304868E-04
               8.0541153401234705E-04
               2.7814655762114712E-04
               1.5974775319912526E-04
               1.1939378662302325E-03
              -3.3177267274949888E-04
              -2.1461849361253194E-03
              -3.9664229222041974E-04
               1.2958922181431356E-03
              -6.9125285610595918E-04
              -8.0396522895726809E-04
              -1.7012192924508742E-04
               4.4049023902777948E-04
               8.8467082473247128E-04
              -2.6361239668268468E-04
               1.5588202539519470E-03
               7.5754582522154766E-04
               1.3097572156628319E-03
              -2.4536980190961570E-04
               1.0065483325835673E-04
               5.8534250102953533E-04
              -5.1799040517174332E-03
               9.3701049456247946E-04
               8.2227623604001678E-04
               1.2350305274658836E-04
              -1.2336211874246027E-04
              -2.1733963431784100E-04
              -1.6209423316601980E-03
              -2.2019301477777106E-03
              -2.4704374727363659E-03
               2.2966157956025709E-03
              -1.5718696179093364E-03
               2.3381211186970985E-03
               5.8077074853769037E-04
              -1.7671471184301370E-03
               1.7032148980789137E-03
               3.2613406840370751E-04
              -7.7837672292972488E-04
              -2.7622046095622413E-04
              -2.2900880514338702E-04
              -1.3165904714549450E-03
              -1.0062805737177391E-03
              -5.6653022234724076E-04
              -1.7495761731177361E-04
               1.0444487224561122E-04
              -1.3092111427551040E-03
              -1.0169057574825626E-03
               1.0444414204037360E-03
               1.3347515690162537E-03
              -4.5186876745492049E-04
               1.2678254901410683E-03
              -7.7410867944484394E-04
               7.7841069239732946E-04
              -2.3742360996870923E-05
              -2.5401493075284903E-04
               1.5068704265059922E-03
               7.8471377151740859E-04
              -8.3581725593680201E-04
               2.9198163055074401E-03
              -7.8195721350156344E-04
              -2.1874131328147915E-05
               7.7260938231509983E-05
              -3.8551640083633204E-04
               1.1904333723969770E-03
               1.7732231466086057E-03
               4.4190106266853157E-03
              -1.0709895715292801E-03
               6.7524917784396671E-05
               4.8561606134769897E-05
               2.3014770934986719E-04
              -5.2633062841859438E-04
               6.7315396132187520E-04
               9.7606844018067844E-04
              -1.5321963710644725E-03
              -9.6395871834402316E-04
              -1.2970050006230296E-04
              -3.2902320838523394E-04
               2.1108141855215737E-03
               3.5396292698609624E-03
              -2.8660384759636457E-03
              -3.5246811971365120E-04
              -6.7312632138117787E-04
              -2.8843294200337020E-05
              -9.1635483785454711E-04
              -1.8241819099861895E-03
               1.1656125385471159E-03
               2.0022834105147443E-03
              -1.4093258995064911E-03
              -8.8442031858337655E-05
              -4.8424227986228690E-04
               1.9082450424895935E-03
               5.9833976613436258E-04
               1.7727696752094589E-03
               5.2120213024357668E-04
              -8.3139136593715244E-04
               4.9904688917949236E-04
               2.7208410789585774E-04
               6.6154889635646158E-04
               8.5383199381227357E-04
               1.2577429929957868E-03
               6.2845881920112374E-04
               7.2589261150443629E-04
               2.6138069983928729E-04
              -7.6591775328216823E-03
               1.0748358919483532E-03
               9.8353045307961358E-04
               7.9131175965618003E-04
              -8.9079141404036616E-04
              -1.6731444561175095E-03
               2.1669142362267676E-03
              -6.4777493606628714E-04
               2.9557685198582545E-04
              -2.5474317227035404E-03
               8.4814572182186415E-05
               2.2337159165911513E-03
              -6.2386302354633404E-04
              -4.5313797320137013E-04
              -3.0913436433532265E-03
              -2.7073358141953422E-03
               1.7927535927749461E-03
              -7.6927398900106855E-04
              -1.6338680416901428E-03
              -1.9798095031830728E-03
              -3.7907208358247795E-04
               1.7213278651140448E-04
               7.3365210109329476E-04
               6.6066465629279056E-04
               3.7236201519798102E-03
               5.4289270373289455E-04
              -1.3214880488331495E-03
              -5.7148793941674722E-05
               5.2771889864991570E-04
              -9.1931648950650162E-04
               8.4303782759361109E-04
              -5.5624315586155749E-04
              -5.4929108788660558E-04
               9.9897445304038268E-04
              -8.0078281114994614E-04
              -2.1242313431205334E-04
              -5.1560564089494446E-04
               9.2298285165514108E-04
               3.0086416102221121E-04
              -6.8447514369153570E-05
               3.6006032759503784E-04
              -2.1746852321485332E-04
               7.1874438919648581E-04
              -2.1648250935220214E-04
              -6.7277536976643538E-04
              -9.5520695117927608E-04
              -1.2675810485259301E-03
               4.2386686870145865E-04
               1.7814644048631380E-03
               5.9114227754605408E-04
               3.3647977278732360E-04
               1.1893975983544092E-03
              -3.2444857373812143E-03
              -2.2893825717498198E-04
               4.6908670440964836E-04
              -5.3157851150537094E-04
              -2.5834635573718923E-05
               1.2872878273537857E-04
              -2.2616910574029100E-04
              -1.3999655618741712E-04
               2.2716095212989203E-04
              -1.8535510970858812E-03
               2.0932514811944337E-04
               1.9045355642823012E-03
              -4.7261731875629419E-04
               2.2116194383755021E-04
               1.2863293034077175E-03
               1.5234596012353233E-03
               5.7614481967399318E-04
               2.2622186138275365E-04
              -3.5656208412261067E-04
              -3.0520312986448037E-04
              -3.5467476807721434E-03
               9.6607865635465464E-04
              -6.3285042119627763E-04
              -2.5910588545636159E-04
               1.8511311932361621E-03
              -1.3813038409982727E-03
              -2.7794882319281077E-04
              -4.0956452059822184E-03
              -1.2876534768117476E-04
               3.2466060135615796E-04
              -4.3834338220294133E-04
               5.8128552525940151E-05
               1.1003736576509068E-03
               6.3754148151323915E-04
               1.3155947052612570E-03
               1.2871074824466967E-03
              -4.5058839947220760E-03
               3.7295933056818130E-05
               9.1468669550612638E-04
               7.6763358265129937E-04
               1.0653387608818307E-03
               2.9126956253245823E-03
              -6.5518125245174973E-04
               8.8606618202555275E-04
               2.7280740629106086E-03
              -1.9642000077571497E-03
               5.8390407902918543E-04
               1.9642187389441543E-03
              -5.9364118785715616E-04
               5.9153376468982545E-04
               5.0357866140825778E-04
              -6.1453802114550080E-04
               2.7469114857762147E-03
              -2.6831423379794359E-04
               1.2935698392900980E-03
               1.6664635176140527E-04
               2.2575327909713834E-04
               2.3784794124584685E-04
              -6.7718483549274850E-04
              -1.3655153955624375E-03
               5.8797588624280388E-04
               3.6110608866574898E-03
               1.8313133397414590E-04
               2.1433909766923232E-03
               2.5353505183161131E-04
               1.5943705743302447E-04
               1.2782257168836932E-04
              -1.4532624611142320E-03
              -1.6772310745891196E-03
               8.1755780269232472E-04
               2.1636318250577201E-04
               5.1744789515298449E-04
               4.6807345261935048E-04
              -2.4722130745327407E-03
               1.7746288974279018E-03
               1.3072424267370406E-03
               7.1443628702315919E-04
              -2.2416096382439827E-04
              -2.8876599281765439E-04
               1.7304257046554532E-03
              -2.2096428735717962E-04
              -3.0290599656963031E-03
               9.9016700315121228E-04
               9.5932592230993017E-04
              -8.1029531608933986E-04
               1.8640078372232351E-04
              -1.0026521122284569E-03
              -1.2231241419227048E-03
              -6.5639576405860731E-05
              -4.2540739083720617E-04
               6.7692491897548764E-05
              -7.3152306461247648E-04
               1.5997560578494047E-03
               5.9273083543180454E-04
              -3.1944217812014078E-04
               1.0616577814520250E-03
               1.6230160665326944E-03
               2.7405605253984553E-04
              -6.9156786799306547E-05
               1.0053058600286930E-03
              -1.0225208635783285E-03
              -2.1971470197501845E-03
              -2.6745771891691592E-05
               6.4594218295092160E-04
               8.3473185121159623E-04
              -5.8351092226033416E-04
              -8.0170749957044244E-04
               9.6910589454906498E-04
              -6.4958225037157645E-04
              -1.8490278396512592E-04
              -4.1463901445035276E-04
              -1.3902202040880571E-04
              -3.5969674993628067E-04
              -4.6467034995191102E-04
               8.4227302384764558E-05
               2.5126564468904529E-04
              -1.1058900398277088E-03
               9.2315287507555564E-05
              -1.0920786147540357E-03
              -1.2900607291164838E-04
              -2.1085971057218679E-04
              -1.2434670129579163E-04
              -7.5682045907305546E-04
               2.1056598419759414E-03
              -2.0284093701554620E-03
               6.5580977998985009E-04
               5.1790906205604909E-04
              -2.4453840179891693E-04
               6.5088919210042843E-04
              -3.6617323097004601E-05
              -1.2252465861897432E-04
               6.1233460378481855E-04
               7.0510659624177453E-04
               7.3294494415155579E-04
              -7.5919444952548442E-05
              -7.6076197767402539E-04
               2.3612899194760508E-03
              -1.0989966306484535E-03
              -2.6167423357375545E-03
               3.5856346632006676E-04
              -6.5863474780806478E-04
              -2.8633069093351843E-03
              -4.2204264236418292E-04
              -7.0436898009600753E-04
               2.9081348655228701E-03
               3.5714807292653130E-04
               1.1104884140591363E-03
               9.3359734282670971E-04
              -1.8227825280893754E-05
               9.5425710378165365E-04
               7.0461310711501964E-04
              -6.4004525328207077E-04
               1.2360434597496334E-04
               1.5761724938216837E-03
               4.1741320795673457E-04
              -1.0408776622745552E-03
               9.5525606409701765E-04
               1.4690778063798920E-03
               6.1119018720629100E-04
               2.1485780512779194E-03
              -8.9776108379780752E-04
              -1.6508680735034516E-03
              -2.2489220138383580E-03
              -2.3545781919413859E-03
               6.5252953940348661E-04
               1.6374879995942541E-03
               9.4040648179509868E-04
               9.5916891927545615E-04
               4.1239197504740017E-03
               3.2291988402477398E-03
              -1.4998009391792373E-03
               1.0425612550040138E-03
               1.5695559720846954E-04
              -2.0155989808371523E-03
               1.8231544147502459E-03
               6.0675644155465858E-04
               5.6562937363005094E-04
               1.4132039233969642E-03
              -3.9726694127103037E-04
              -9.4929762751509619E-04
              -6.8924010700324235E-04
               3.6014680871447016E-05
               4.3217873361353740E-05
              -4.2098607653148193E-04
              -6.6612820194521824E-04
               3.3856459808248427E-04
              -8.9457435486290184E-05
              -1.9957105536281962E-03
               1.9216838322853739E-03
              -1.6040683115958034E-03
              -8.0915221202540021E-04
               1.5638431012647003E-03
              -1.0867869197886832E-04
               2.9907431146147413E-05
              -1.0044200683609226E-03
              -1.6100182277737256E-03
               1.5091611587401041E-03
              -2.1765789791420923E-03
               1.1839425632489125E-03
              -1.0717287132262811E-04
              -1.4119163094500169E-03
              -9.2284255213474157E-04
               2.0085422209125347E-04
              -1.4630321286300430E-03
               2.1990735989721815E-03
               1.1957483671785806E-04
              -1.8742023691013816E-03
              -3.3986590983903610E-03
               2.2423854838009368E-03
              -3.2784783220591115E-04
               1.3597470574828016E-03
               1.4559603500878698E-03
              -2.4304966618187579E-04
              -1.5450380804143888E-03
               1.9379902812598276E-03
               1.2551585673512033E-03
              -2.0962507057178683E-03
               5.1579384056107112E-04
               1.1738016935861821E-04
              -1.2264178781960680E-03
              -1.2057380997604690E-03
               1.0592020302285215E-04
               7.3862537440952435E-04
              -7.1177126325373905E-04
              -7.0699715500770893E-04
              -6.8757491873005648E-04
              -1.5323245468095239E-03
              -8.6388066489350617E-04
              -1.6762592549890007E-03
               8.4571984335524435E-04
               3.1150050236610155E-04
               4.1648697712230021E-04
              -1.7787095298336920E-03
               2.3274156110934547E-03
               6.6336749966809032E-04
               2.3753791162652847E-03
               4.9034040171651723E-06
              -1.8123660277331904E-05
               8.4038120038847220E-06
               1.0232197611202570E-03
              -2.4291030164907005E-04
              -2.9068279848799215E-04
              -8.3107757590915299E-04
               8.7116765161296384E-04
              -9.3765332332694528E-04
               1.7227296881959368E-03
              -7.6210073331074604E-04
              -1.9212058522551491E-04
               4.9758551810213068E-04
              -5.8115354548765900E-04
               4.2832004020846958E-04
              -9.7842932920010994E-04
               1.2287574085736912E-03
              -2.7187237532908179E-03
               8.5947307988604713E-04
              -1.3018321608528820E-05
              -1.1466013765113387E-03
              -3.0642013116341919E-03
               5.7088527159611185E-04
              -1.2806647649476011E-03
               8.4440902121098410E-04
               1.1964990076417052E-03
              -9.9562461186687723E-05
              -2.0253178083033314E-03
               1.5800240196884344E-03
               1.0209785905993262E-03
               1.0269525880576341E-04
               4.0822704429790589E-04
              -7.6554566886523042E-04
               2.4947573473055985E-04
              -1.9202861326293307E-04
              -5.4358221649199829E-04
              -1.3947079479701594E-03
               8.2704987580480677E-05
              -1.0224140240256310E-03
              -1.2657145767314658E-04
               5.4669386736904855E-04
               1.2552037412510103E-03
              -1.2537299374284086E-03
              -2.6109231205436994E-03
               4.7526173558839726E-04
              -8.6908487202442522E-04
               5.9677734458584146E-04
              -3.7852899972252562E-04
               1.8718240543494531E-04
              -6.5589541076988087E-04
              -1.4901292465217539E-03
              -4.3463921682701008E-04
               7.8456229544403462E-04
              -4.3234234110907529E-04
              -9.0462010857242305E-04
              -5.9588884864252229E-04
              -1.5895425597060430E-04
              -1.1156233517539338E-03
              -4.4073299268163578E-03
              -2.4368658020287614E-03
               1.7372400620096430E-03
              -1.2010854722389020E-03
              -2.2001758675420928E-03
               6.8337656203722088E-04
               3.2238953182961650E-04
               6.9871837513431942E-04
               4.0223833360700967E-05
              -4.3687757100988435E-04
               1.2512362267386979E-03
              -2.0032366591303844E-04
              -1.0698739354830877E-03
               3.2055648824674413E-03
               3.6975269265493893E-04
              -9.3854650325768700E-05
              -6.3219692312146665E-04
               8.0340750890668601E-04
               5.8051125112677923E-03
              -3.6318607617696614E-04
              -5.7295966161757654E-04
               1.1841904209002605E-05
              -9.5749968840881270E-04
               2.2328575150990199E-05
              -4.7268505366479508E-04
              -7.1319058808635700E-04
              -2.8406041191942168E-04
               1.3461139493314289E-03
              -7.7267460451951701E-04
              -3.3828180398729396E-04
              -1.2467524023956005E-04
              -2.8652217598659877E-04
               2.4700580793195672E-03
               6.6169023808143655E-04
              -2.0775567468575358E-03
               7.8791464806747926E-04
              -1.8142672960000453E-03
              -1.3452856322933884E-04
               2.7229363253509038E-03
              -4.0380378879774294E-04
               1.0854559283598063E-03
              -1.0558093867119986E-03
              -1.7000930650984142E-03
              -9.5505432711013455E-04
              -1.4783115750971292E-05
               2.3132418065134877E-03
              -1.1803567320321728E-03
              -7.0213685663275433E-04
              -1.4453547121496407E-04
              -4.1410145856602928E-04
               3.5514785005539738E-04
               2.2165078493431257E-03
              -4.5593353189753150E-04
               3.5630601566800848E-04
               7.8811837697898544E-05
               5.0718527380176767E-04
               1.3023297703420333E-03
              -2.1861993466158474E-03
              -2.9050079643201784E-04
              -5.3078673716848478E-04
              -3.9830790034988848E-04
              -2.1503869720864246E-04
              -1.3774852740111706E-04
              -2.7069575483272497E-04
              -5.5575437978662217E-04
               1.7227765130984401E-03
               2.3289848272719520E-03
               3.7173244820809921E-04
              -1.3060581770978621E-03
              -2.0641791418865882E-03
               1.7911323125691144E-04
              -9.3035948145678152E-04
               6.2879756729719192E-04
              -8.1393284942700525E-04
               5.5911632199144329E-04
               3.5343223296972293E-04
              -3.5134465748185755E-04
              -1.0989634536145573E-03
               3.2358782862844887E-05
               3.8691725489953076E-04
               1.1879744847658211E-03
              -2.9112292300215186E-04
               6.8909094238391781E-04
              -1.9669294305028491E-04
              -1.4496279734661484E-04
              -8.4269786267664735E-05
               8.0428831006958146E-04
               1.0618000757458303E-03
              -5.7199233457058641E-04
              -3.1325450532747549E-03
              -3.3092572751469116E-04
               1.0562849635134446E-03
              -4.1747784462108073E-04
              -3.3308914894091251E-03
               3.7506628245057488E-04
               1.1363112516797128E-03
               7.8268685328416934E-03
              -1.8456140090164054E-03
               8.1276182407324970E-04
              -9.8667458164942230E-04
              -1.3947053236473298E-03
               2.0613535169671650E-03
               1.6630494968759317E-04
               9.6382802783065208E-04
              -2.6870454890659183E-03
              -3.8100735493169622E-04
               9.6538429598571869E-04
               1.6854514741103393E-04
              -1.5839859255902329E-03
               1.7078319253308830E-03
               2.7371074865176724E-03
               1.9051108114275280E-03
              -1.5170365875588284E-03
              -1.1747565223239260E-03
         &END THERMOSTAT_ENERGY
         &RNG_INIT
Wiener process for Thermostat # 1        1 F T T   2.4394949649911377E-01        3581392095.0        4245447744.0        1846744161.0        2013091943.0        1125887947.0        3715007977.0             12345.0             12345.0             12345.0             12345.0             12345.0             12345.0             12345.0             12345.0             12345.0             12345.0             12345.0             12345.0
Wiener process for Thermostat # 2        1 F T T  -5.5615973396894125E-01        3909616095.0        3426242160.0        3494403923.0        3884138427.0        2425843262.0        2659535270.0        3692455944.0        1366884236.0        2968912127.0         335948734.0        4161675175.0         475798818.0        3692455944.0        1366884236.0        2968912127.0         335948734.0        4161675175.0         475798818.0
Wiener process for Thermostat # 3        1 F T T   5.8715055632031421E-01        3301113016.0         136916930.0          58045336.0         713400237.0         686253138.0        3987944488.0        1015873554.0        1310354410.0        2249465273.0         994084013.0        2912484720.0        3876682925.0        1015873554.0        1310354410.0        2249465273.0         994084013.0        2912484720.0        3876682925.0
Wiener process for Thermostat # 4        1 F T T  -1.0855598636449033E+00        1903690447.0         269962867.0        3736021799.0        4023969799.0        3844796008.0        1228278629.0        2338701263.0        1119171942.0        2570676563.0         317077452.0        3194180850.0         618832124.0        2338701263.0        1119171942.0        2570676563.0         317077452.0        3194180850.0         618832124.0
Wiener process for Thermostat # 5        1 F T T   1.2411606267326061E+00        3158256738.0         505183878.0        2744271813.0        1770834132.0        1233443238.0        1809654709.0        1597262096.0        3906379055.0        3312112953.0        1016013135.0        4099474108.0         275305423.0        1597262096.0        3906379055.0        3312112953.0        1016013135.0        4099474108.0         275305423.0
Wiener process for Thermostat # 6        1 F T T  -2.4996674131981092E-01        1704626977.0         695305038.0         525797049.0         692511287.0        4233555777.0        1360564654.0          97147054.0        3131372450.0         829345164.0        3691032523.0        3006063034.0        4259826321.0          97147054.0        3131372450.0         829345164.0        3691032523.0        3006063034.0        4259826321.0
Wiener process for Thermostat # 7        1 F T T  -1.8081156933011500E-01        2335179891.0        1531646318.0        3848495270.0         773057201.0        3727433049.0        1559257192.0         796079799.0        2105258207.0         955365076.0        2923159030.0        4116632677.0        3067683584.0         796079799.0        2105258207.0         955365076.0        2923159030.0        4116632677.0        3067683584.0
Wiener process for Thermostat # 8        1 F T T   1.2993467154509577E+00        4013913744.0        1233860730.0        1746388378.0         563396611.0        2758980883.0        1424931369.0        3281794178.0        2616230133.0        1457051261.0        2762791137.0        2480527362.0        2282316169.0        3281794178.0        2616230133.0        1457051261.0        2762791137.0        2480527362.0        2282316169.0
Wiener process for Thermostat # 9        1 F T T  -3.9231157739413652E-01        3123589161.0        1813244446.0          68173081.0        3994167938.0        4177326542.0        3288527682.0        3777646647.0        1837464056.0        4204654757.0         664239048.0        4190510072.0        2959195122.0        3777646647.0        1837464056.0        4204654757.0         664239048.0        4190510072.0        2959195122.0
Wiener process for Thermostat # 10       1 F T T  -1.0953536328162781E+00        3133263269.0        3628354904.0        2306088592.0         685769610.0        2288256851.0        2470234654.0        4215590817.0        3862461878.0        1087200967.0        1544910132.0         936383720.0        1611370123.0        4215590817.0        3862461878.0        1087200967.0        1544910132.0         936383720.0        1611370123.0
Wiener process for Thermostat # 11       1 F T T   1.0960835283811952E+00        2833375684.0        2095249498.0        3782011924.0        2668247318.0        3011279984.0         595563830.0        1683636369.0         362165168.0         814316280.0         869382050.0         980203903.0        2062101717.0        1683636369.0         362165168.0         814316280.0         869382050.0         980203903.0        2062101717.0
Wiener process for Thermostat # 12       1 F T T   6.2401066384809523E-01        1955215527.0        2579673342.0         599110418.0        2678363038.0         273744378.0        1485451712.0         272317999.0         166758548.0         310112982.0         201045826.0        1680231254.0         118290799.0         272317999.0         166758548.0         310112982.0         201045826.0        1680231254.0         118290799.0
Wiener process for Thermostat # 13       1 F T T  -3.6248708654088579E-02        1734932579.0         385093762.0        1798317118.0        1694714024.0        3917767634.0        2856924150.0        2245755202.0        1652682525.0        2865544364.0         721509566.0         209733568.0         592362218.0        2245755202.0        1652682525.0        2865544364.0         721509566.0         209733568.0         592362218.0
Wiener process for Thermostat # 14       1 F T T  -9.5045996650236197E-01        3499206884.0        2778163953.0        1598247428.0        1245740227.0        1686322003.0         198087169.0        3003961408.0        3529909391.0          14538032.0        3603919910.0         566682685.0        1235016484.0        3003961408.0        3529909391.0          14538032.0        3603919910.0         566682685.0        1235016484.0