 # Version information for this restart file 
 # current date 2015-03-10 10:19:35.015
 # current working dir /home/dlambrecht/bja39/cp2k/aimd
 # Program compiled at                              Fri Feb 27 09:44:54 EST 2015
 # Program compiled on                                login0a.frank.sam.pitt.edu
 # Program compiled for                                                    Frank
 # Source code revision number                                       git:9520686
 &GLOBAL
   PRINT_LEVEL  LOW
   PROJECT_NAME WATER
   RUN_TYPE  MD
   WALLTIME 1800
 &END GLOBAL
 &MOTION
   &GEO_OPT
     OPTIMIZER  BFGS
     MAX_ITER  100
     MAX_DR     3.0000000000000001E-03
     &BFGS
     &END BFGS
   &END GEO_OPT
   &MD
     ENSEMBLE  NVT
     STEPS  1000
     TIMESTEP     4.9999999999999994E-01
     STEP_START_VAL  46
     TIME_START_VAL     2.3000000000000014E+01
     ECONS_START_VAL    -1.1023558357478485E+03
     TEMPERATURE     3.0000000000000000E+02
     &THERMOSTAT
       TYPE  GLE
       REGION  MASSIVE
       &GLE
         NDIM  5
         A_SCALE     1.0000000000000000E+00
         A_LIST     1.8595758612559999E+02    2.7263853498399998E-01    1.1526100454610001E+01   -3.6414578262600003E+01 \
             2.3173375816020001E+02
         A_LIST    -2.7809524712060002E-01    8.5951591808710006E-05    7.2189048017650004E-01   -1.9844539343859999E-01 \
             4.2409257583420001E-01
         A_LIST    -1.4825808131210000E+01   -7.2189048017650004E-01    1.3590902121280000E+00    5.1498896280349999E+00 \
            -9.9949268450990001E+00
         A_LIST    -1.0372189126880000E+01    1.9844539343859999E-01   -5.1498896280349999E+00    2.6661910891169999E+01 \
             1.1507715495310000E+01
         A_LIST     2.1801346360420001E+02   -4.2409257583420001E-01    9.9949268450990001E+00   -1.1507715495310000E+01 \
             3.0958394565589998E+02
         &THERMOSTAT_ENERGY
              -8.1237755321043566E-04
              -2.9432596328283957E-04
               2.3840760125928801E-04
              -1.8687917404526689E-03
              -1.3755969010212014E-03
               2.4962506062576571E-03
               3.6335616394647186E-04
               2.7554141059238355E-03
               9.1772591729790418E-04
              -2.0106417531452108E-05
               1.6041114373672039E-04
               1.2041514955160864E-04
               2.7670881227483180E-03
               9.9246192799731033E-05
               8.7917040840014842E-04
               3.9561281361586917E-04
              -2.8894315447814512E-04
               1.1777916648277951E-03
              -2.3542898384154207E-04
               7.2515036746297285E-04
              -4.6688473167768652E-04
               1.2077961903443702E-03
              -5.2827050126021558E-04
              -8.9876661788023478E-04
               7.4999144309942974E-05
              -6.0977180503599961E-04
               6.0597732664124623E-04
              -8.3749411628568533E-04
               1.5611671271407639E-03
               9.1822428123751877E-04
               1.1032950747391515E-03
              -2.7636425681763701E-04
               1.5486207351630884E-04
               2.5816869478002466E-04
              -4.2282006604314722E-03
               1.5740472468627645E-03
               8.5514234512525892E-04
              -8.6035494305317702E-04
               1.9853620867850961E-05
               1.6361193268096165E-04
              -2.0709342960260686E-03
              -2.2159999478434250E-03
              -2.3427440499265316E-03
               1.9084753260846794E-03
              -1.6994095335637958E-03
               2.2539829956096658E-03
               2.3299370086831008E-04
              -7.4253307787615829E-04
               1.6868755475063189E-03
               3.7590646949274944E-04
              -6.9274985524189650E-04
              -8.7613959061759374E-05
              -2.2252742482428537E-04
              -8.3269306307781296E-04
              -1.2676737280435447E-03
              -2.6787194991402156E-04
              -4.1629511230966164E-04
              -1.0890634819249394E-04
              -1.0615637762320996E-03
               3.2651506766263080E-04
               1.0958135062054744E-03
               1.1213298621234266E-03
              -1.5553852586991899E-04
               1.5654627983296857E-03
              -7.9588037526445558E-04
               8.9595908678606639E-04
              -3.3025612596408521E-04
              -2.7031344554381077E-04
               1.1791909719787691E-03
               7.6733569652759814E-04
              -6.5178372740854861E-04
               2.7696803485469310E-03
              -6.3518235913049561E-04
               1.3362117685196845E-04
               2.2863203021733253E-04
              -4.0716199773303558E-04
               1.1404351506120139E-03
               1.8907908325914362E-03
               4.2820339574648966E-03
              -6.6397740032972852E-04
               1.2462499629820547E-04
               4.4039293929002133E-05
              -3.6840026849581983E-04
              -4.3712589004761917E-04
               3.9276865717765083E-04
              -4.9540866067070968E-06
              -7.4933721038150040E-04
              -1.4796560059397836E-03
              -7.5926738098393092E-04
              -6.1445963860218712E-04
               1.9064742753950020E-03
               3.2778949951828371E-03
              -2.3063987687082514E-03
               3.7031334879129743E-04
              -7.0896372613157756E-04
               8.6879297504478055E-04
              -4.8510259075538402E-04
              -1.7482241126095710E-03
               1.4664437203542437E-03
               1.4309250075922604E-03
              -7.3347058471044235E-04
              -2.6770701774140555E-05
              -4.9377168802392641E-04
               1.1247342649635711E-03
               3.7429162062168969E-04
              -2.0962470762879112E-04
               9.6426953975583738E-04
              -1.0704644818347341E-03
               8.5981458538095853E-04
               4.5697883826085659E-04
               6.1719128253111038E-04
               1.0092980719148892E-03
               1.0604148787293208E-03
               6.1253432644626409E-04
               1.6128070175422055E-03
               2.5016185011185309E-03
              -6.1314559665465894E-03
               1.2166781680690568E-03
               8.8147582572291306E-04
               6.4626482697550361E-04
              -5.0446396508321747E-04
              -7.2449334410356323E-04
               2.2253960520815150E-03
              -9.7964220341113762E-05
               6.7377448351164913E-05
              -2.1856885041580945E-03
              -1.7140497225244012E-04
               2.2853991769655260E-03
               1.9724669298580252E-05
               2.8318779073151283E-05
              -3.3964977098282266E-03
              -2.4558430141085321E-03
               2.1517486494402054E-03
              -2.6831377039643290E-04
              -1.4095875873590344E-03
              -9.8103338743518774E-04
               4.9955561141700562E-06
               1.2664612058160135E-03
               6.9223101554179427E-04
               2.3408504802239046E-04
               4.0608441182940196E-03
               3.2143286430438552E-04
              -1.2355853740548619E-03
               2.5603875994467575E-04
               7.0564545555238485E-04
              -2.1614225189714112E-04
               6.8943019625240104E-04
              -5.4088465222655732E-04
               2.1699830925511336E-04
               6.4089703239013612E-04
              -8.6866281883661806E-04
               1.6682162449842440E-04
              -6.5388054446981073E-04
               9.1094882458220110E-04
               2.7533847156276342E-04
               3.5224919096968848E-04
               3.5985878326690653E-04
              -2.6371494328027335E-04
               1.5251275867299462E-04
              -2.0015814998244557E-04
              -6.6305940122213551E-04
              -9.7573434703109832E-04
              -1.2496698769773333E-03
               5.2164203371922696E-04
               1.4714454088444249E-03
               7.3642101589775047E-04
               9.1075490277268609E-04
               1.1629450789860179E-03
              -3.4560250564226653E-03
              -3.8895749150999058E-04
               2.9035264676018058E-04
              -3.2671929086167313E-04
               1.3851602055629748E-04
               7.5612990960965975E-05
              -1.1793121917618689E-04
              -2.6880935995230815E-04
               3.4858547180688241E-04
              -1.6080049578130139E-03
               3.1448644088058193E-04
               1.5386484666785802E-03
              -5.5692991336238286E-04
               1.5603154442321294E-04
               1.0605939518984985E-03
               1.7362818038057276E-03
               6.3984716973741979E-04
               2.9471789616991964E-04
              -7.8620683428728565E-04
              -1.2211552467406327E-03
              -3.2331491648524427E-03
               7.7542644076552961E-04
              -4.6633257920646000E-04
              -5.1307643309148445E-04
               1.7044596028344462E-03
              -1.5505300880289126E-03
              -1.3834505952374016E-04
              -4.1624235414586775E-03
              -8.2454027539611874E-05
               1.0836374381171738E-03
              -9.7203951955359048E-05
              -4.9329294179470797E-04
              -1.2918804332318708E-04
               6.9176742056351395E-04
               1.4104590810462643E-03
               1.1356343845311241E-03
              -4.4444441335501341E-03
              -1.6310729366506938E-03
               7.8644908883708530E-05
               9.1730660746279860E-04
               8.5492327307024616E-04
               2.6607905679155962E-03
              -6.3769156894199564E-04
               8.4528513108606809E-04
               3.0659368085020526E-03
              -1.8126139769877958E-03
               4.6054891739537654E-04
               1.6556320819826941E-03
              -7.9621051849372419E-04
               7.5335589719017625E-04
               1.6238890618826702E-04
              -6.4049062470222513E-04
               2.4358435838776524E-03
              -6.3571172728220447E-04
               1.0067595907807712E-03
               2.8814730338083433E-04
              -2.0543904292340102E-04
               3.3795177655487554E-04
              -3.9695146591007429E-04
              -3.4224133677204359E-04
               4.2682629814090134E-04
               3.1106816616968467E-03
               9.9870447792699193E-05
               2.2658017485863678E-03
              -7.2667481910501782E-04
               1.3862959255772801E-04
               2.4516442520324785E-04
              -2.2951205434637756E-03
              -2.0247878085865550E-03
               9.4981398616476864E-04
               3.4954930578466690E-04
               8.7320935582387916E-04
               9.8224161905908092E-04
              -2.4745437555863973E-03
               1.8865858933864372E-03
               1.0474477944659802E-03
               8.4769824301206016E-05
              -1.3431204425648163E-04
              -1.4473777186221404E-04
               9.1535455160138865E-04
              -2.5936529255474378E-04
              -2.3719694786885608E-03
               1.1526911279822198E-03
               8.8359890729134381E-04
              -8.1488408172590066E-04
               2.0044555783467463E-04
              -3.4900033015961875E-04
              -6.7352102566299956E-04
              -8.3561393574662087E-05
              -3.1316171424658143E-04
               1.4853342948806662E-04
              -5.3759442792193429E-04
               6.4898073374853476E-04
               6.6966749245366485E-04
              -3.4429361272932406E-04
               1.1495813092772247E-03
               1.2747484818532836E-03
               2.4658879767134717E-04
               2.5763235090606477E-05
               8.2657225099153303E-04
              -1.3329806115240186E-03
              -2.2488831508453823E-03
              -1.6105170924258247E-04
               5.3543053911643361E-04
               5.2643150103326192E-04
              -1.3574664448056688E-04
              -1.0789709793614082E-03
               1.1119802545915001E-03
              -4.5712954389803877E-04
              -3.0719882087281228E-04
              -8.0001487423437883E-04
               5.4221395101046614E-05
              -3.1229420090361293E-04
              -4.8380586753841434E-04
              -1.5046359595329104E-06
               3.6761467660672729E-04
              -8.3202050794710142E-04
               3.1799552559441826E-04
              -1.0151656698923124E-03
              -1.3194679695633540E-04
              -6.0487017273662858E-04
               1.4755628705220706E-04
              -2.0359501056385473E-03
               2.3677407527762776E-03
              -1.7948777499286878E-03
               1.1174372775304392E-03
               5.6673678557732496E-04
               4.9561717027842803E-05
               2.9177583120067234E-04
               1.0892562007516280E-04
              -1.6150627303267645E-04
               4.7421396546748154E-04
               1.4627488080979248E-03
               6.2746749250207660E-04
              -2.9726550027893027E-04
              -4.5986263479857450E-04
               2.3056241052344557E-03
              -1.1999022958803437E-03
              -7.6375587563934019E-04
              -5.6149653434070220E-04
              -9.5728040861862214E-04
              -3.2191541085541068E-03
              -4.1655654347295869E-04
              -7.2689043506750568E-04
               2.8541767819330981E-03
               5.6082672783441692E-04
               1.0960077336858412E-03
               7.1475228189021378E-04
              -8.4484716056330183E-05
               8.3915477015646740E-04
               4.0335492349397977E-04
              -5.4448697926048103E-04
              -3.4207085187684509E-05
              -6.5425812998931164E-04
               3.0693392783873120E-04
              -1.4862285377906803E-03
              -3.6765103389736894E-05
               8.6005699786411859E-04
               6.4669052295760593E-04
               3.5700052883366391E-03
              -8.1886507256928229E-04
              -1.6147322548227937E-03
              -2.2954133429248301E-03
              -4.8685137061563974E-04
               6.4513561812866243E-04
               1.6083469401939156E-03
               8.5798501542630554E-04
               9.7686936065457543E-04
               4.0414014225627392E-03
               3.1568918309621036E-03
              -1.9813888682496963E-03
               1.1848131652699304E-03
               1.1256849127602920E-04
              -1.3306164698261417E-03
               1.3433688520994658E-03
               6.1730772534875772E-04
               5.6357649803248655E-04
               1.3938467143277335E-03
              -4.2499609723509250E-04
              -6.4479956507330124E-04
              -6.8810930132048441E-04
               1.9517401090995816E-04
               1.2369438495236232E-04
               2.8046739223225278E-05
              -6.0676319079154312E-04
               1.1413736083093579E-04
              -5.6012440813820114E-04
              -2.1322718084165184E-03
               1.7642447193061497E-03
              -1.6499717177703242E-03
              -1.2304299307360981E-03
               1.4488738852010293E-03
              -5.5190902733474173E-05
              -5.1270982774379340E-04
              -4.1260823565279656E-04
              -1.2595516495607537E-03
               1.5393154018631468E-03
              -1.3201416224259215E-03
               1.2511876744643849E-03
              -1.3091749047208223E-04
              -1.8383751245333877E-03
              -9.1950212763989767E-04
               1.8514625224378973E-04
              -1.1957408549784416E-03
               2.3434688794969024E-03
               9.2540547740843925E-05
              -1.4518999030445946E-03
              -3.2494841181136373E-03
               2.1594812163861074E-03
              -8.3712294740881789E-04
               1.3622275058368879E-03
               6.9416879878073047E-04
               2.3365042839875545E-05
              -1.3690297380705497E-03
               2.4792014005972141E-03
               1.0137854102627332E-03
              -2.7020325040631194E-03
               8.7606847626950238E-04
              -6.4410535395079539E-04
              -3.2051755249460478E-03
              -2.1810448093779883E-03
               7.4187258611918040E-05
               6.8931897193804390E-04
              -5.1856273689182477E-04
              -8.5567938165433024E-04
              -1.2905745253443349E-03
              -1.5771226894318797E-03
              -3.8971902283670482E-04
              -1.5542873457546995E-03
               8.1619985479392822E-04
              -6.4830348026280633E-05
              -2.1265048350298477E-04
              -2.6456961152824580E-03
               2.0981241298184674E-03
               5.4691333310467687E-04
               1.5532914636346004E-03
              -4.3526171366259407E-04
              -5.5797205806172968E-05
              -4.4531923414490974E-05
               1.0680145752051265E-03
              -2.0419890954630923E-04
              -1.8482394129109623E-04
              -6.4464106717368832E-04
               8.0756803957549169E-04
               1.9684993852546456E-04
               1.5615089802951448E-03
              -5.4792097599102847E-04
              -1.9137366127952029E-04
               7.0366183959346979E-04
              -8.7400480549870545E-04
              -1.5438646708277617E-04
              -1.2806062430034619E-03
               5.5069828199191069E-04
              -2.3606133343361140E-03
               6.9512280570284445E-04
              -1.3054154265621447E-04
              -1.2076384191998433E-03
              -9.9652189707154248E-04
               1.2147206713968425E-03
              -1.4416756071617656E-03
               6.7003904628160516E-04
               1.3580138546871090E-03
              -3.5145289339269016E-04
              -2.1135217028687603E-03
               1.6133669868630604E-03
               7.0372045561442880E-04
               7.7211313003898885E-05
               2.7257356799039107E-04
              -5.7673368461488579E-04
               2.7152081517088948E-04
              -1.8315515903958907E-04
              -4.4862450333755827E-04
              -1.4880132923974700E-03
              -1.6914871486315347E-04
              -8.6118129292938326E-04
              -1.6424115982303618E-04
               3.8632035021549923E-04
               1.5703454396239016E-03
              -5.8807346893662168E-04
              -1.1694673543073302E-03
               7.7375168016062914E-04
              -1.0432331331657061E-03
               3.7707449862855395E-04
              -5.3484632637455104E-04
               9.9572542085151166E-04
              -3.1337426960929360E-04
              -1.7971740296150666E-03
              -3.8955486171608831E-04
               1.7858390593538775E-04
              -6.1412309546460763E-04
              -4.6115208160825319E-04
               1.2963341845252012E-03
              -9.8036933736174881E-06
              -1.1144769297299387E-03
              -1.7900984346610280E-03
              -2.3246515025119145E-03
               1.1672407114905643E-03
              -1.2405615789723213E-03
              -3.0863352180923839E-03
               1.1666110193493046E-03
               4.2838131111853076E-04
               3.7808369508411383E-04
               1.1740484034915226E-04
              -9.0625380389827064E-04
               2.2861299178776866E-03
              -1.8063286242496116E-04
              -8.1661985939412616E-04
               3.2058822500302610E-03
               4.0907541516784374E-04
               1.5707094715715117E-04
              -1.2908325349317809E-03
               8.5092592811900633E-04
               5.5218565644777236E-03
              -1.6754234466152377E-03
              -1.0325955339778323E-03
               4.7443470746924433E-05
              -1.5968839272996844E-03
               2.9370868094198561E-05
              -4.2522176741481078E-04
              -1.2452104634650683E-03
              -6.1013657136316517E-04
               1.2793085971240384E-03
              -9.9289571316519133E-04
              -6.0917372853291325E-05
              -4.2179139857734183E-06
              -3.9163851918922420E-04
               2.3585124570318439E-03
               4.0201174182349372E-04
              -1.3658394369281798E-03
               1.3564092145104741E-03
              -2.3111120333267291E-03
              -7.5687131797786897E-04
               2.6387095501994905E-03
              -4.8834256411571498E-04
               1.3927142035338798E-03
              -1.2953544879525420E-03
              -6.9908975304361354E-04
              -1.3580956523508096E-03
               4.5595077004301069E-04
               2.3847813564552576E-03
              -1.0167769828250822E-03
              -9.3261392655508537E-04
               5.1197089282988911E-05
              -6.5053828652180627E-04
               4.7734595055127962E-04
               1.2357307072082533E-03
              -2.0971122338752895E-04
               6.7700458477676600E-04
              -6.4440264997097719E-04
               4.9866474012301475E-04
               6.5278408475820426E-04
              -2.3689634378053891E-03
               4.9516006910837237E-04
              -4.6736257940672158E-04
              -2.9339924034299698E-04
              -4.1815562742554964E-04
              -6.8249318188295634E-05
               1.0268879414381405E-04
              -2.8926971588424580E-04
               1.7282732647805319E-03
               2.1954248632610053E-03
               3.8587356107806022E-04
              -1.0161664783745090E-03
              -2.2337964093012436E-03
               2.1647238469067555E-04
              -6.0652232748280137E-04
               2.9921949146719494E-04
              -1.0300707271725534E-03
               7.6828861302042500E-04
               1.5761057051411878E-04
              -3.7169879375995669E-05
              -8.6789726985444420E-04
              -3.0888721508523195E-04
               2.8686790492634626E-04
               1.1807038992992837E-03
              -1.3765040940448640E-04
               4.1783580430227482E-04
              -6.3485762549806064E-04
               8.6287946385850867E-04
               2.5620137875843207E-04
               8.2639996105104269E-04
               1.1591829687761345E-03
              -6.8119981508135371E-04
              -2.2028176494955209E-03
              -9.5300319599944726E-04
               1.3371101107866054E-03
               2.4819289978901196E-05
              -3.2160526392626849E-03
               3.4852376098378244E-04
               1.3464189888381054E-03
               7.6951280382508598E-03
              -3.0293676323347981E-03
               6.8255905288115660E-04
              -1.5674624770326254E-03
              -1.3935135877559571E-03
               1.5695834787918916E-03
               1.6952829278070764E-04
               1.1566911246749189E-03
              -2.6269792250720901E-03
              -6.8111865024448096E-04
               9.6191855739977280E-04
              -1.2879026616935104E-04
              -1.1727411950811228E-03
               1.6143702268404563E-03
               3.5931226459789164E-03
               2.7044099307815994E-03
              -1.3760507626037733E-03
              -1.1304433387070525E-03
         &END THERMOSTAT_ENERGY
         &RNG_INIT
Wiener process for Thermostat # 1        1 F T T   2.5407941214855106E-01         218861964.0         721231786.0        2712581128.0         366974123.0        1083304653.0        2236271499.0             12345.0             12345.0             12345.0             12345.0             12345.0             12345.0             12345.0             12345.0             12345.0             12345.0             12345.0             12345.0
Wiener process for Thermostat # 2        1 F T T  -2.6266234694881768E-01        1229366627.0        2320481442.0        3350599956.0        1178206910.0         363445192.0        2356678286.0        3692455944.0        1366884236.0        2968912127.0         335948734.0        4161675175.0         475798818.0        3692455944.0        1366884236.0        2968912127.0         335948734.0        4161675175.0         475798818.0
Wiener process for Thermostat # 3        1 F T T  -1.5427778664229730E-01        4239153764.0        2954913742.0         242131463.0        2311061989.0        1603860360.0        1373447015.0        1015873554.0        1310354410.0        2249465273.0         994084013.0        2912484720.0        3876682925.0        1015873554.0        1310354410.0        2249465273.0         994084013.0        2912484720.0        3876682925.0
Wiener process for Thermostat # 4        1 F T T   1.8968241918271846E+00        4173469320.0        3656803844.0        3020166179.0        1452798455.0         685481547.0        3337774523.0        2338701263.0        1119171942.0        2570676563.0         317077452.0        3194180850.0         618832124.0        2338701263.0        1119171942.0        2570676563.0         317077452.0        3194180850.0         618832124.0
Wiener process for Thermostat # 5        1 F T T  -9.5849172727768195E-01        4241969781.0         406874259.0        2213697391.0        2411294880.0        3762245724.0        1152975069.0        1597262096.0        3906379055.0        3312112953.0        1016013135.0        4099474108.0         275305423.0        1597262096.0        3906379055.0        3312112953.0        1016013135.0        4099474108.0         275305423.0
Wiener process for Thermostat # 6        1 F T T  -4.9000413269124626E-01        2823529846.0        2594312144.0        1404084829.0          32727902.0        2031246881.0        4138976339.0          97147054.0        3131372450.0         829345164.0        3691032523.0        3006063034.0        4259826321.0          97147054.0        3131372450.0         829345164.0        3691032523.0        3006063034.0        4259826321.0
Wiener process for Thermostat # 7        1 F T T  -1.5858176518399741E-01          98670582.0        1826754128.0        3785296456.0        1632747220.0        1239229616.0        3538311645.0         796079799.0        2105258207.0         955365076.0        2923159030.0        4116632677.0        3067683584.0         796079799.0        2105258207.0         955365076.0        2923159030.0        4116632677.0        3067683584.0
Wiener process for Thermostat # 8        1 F T T   4.6805677772604370E-01         843498503.0        2729519600.0        4082323590.0        2027406298.0        3301073927.0         710011024.0        3281794178.0        2616230133.0        1457051261.0        2762791137.0        2480527362.0        2282316169.0        3281794178.0        2616230133.0        1457051261.0        2762791137.0        2480527362.0        2282316169.0
Wiener process for Thermostat # 9        1 F T T  -3.1177311699467031E-01        3167040314.0        3993127044.0        4073741743.0        3717293272.0        3405672925.0        1291894706.0        3777646647.0        1837464056.0        4204654757.0         664239048.0        4190510072.0        2959195122.0        3777646647.0        1837464056.0        4204654757.0         664239048.0        4190510072.0        2959195122.0
Wiener process for Thermostat # 10       1 F T T  -1.1736336656620774E+00        3604607837.0         585266994.0        2651718275.0         306500314.0        4254594554.0          89622088.0        4215590817.0        3862461878.0        1087200967.0        1544910132.0         936383720.0        1611370123.0        4215590817.0        3862461878.0        1087200967.0        1544910132.0         936383720.0        1611370123.0
Wiener process for Thermostat # 11       1 F T T  -9.0019940503874052E-01        2898298424.0         365897834.0        2471251332.0        2273531977.0        2926243218.0        3363307550.0        1683636369.0         362165168.0         814316280.0         869382050.0         980203903.0        2062101717.0        1683636369.0         362165168.0         814316280.0         869382050.0         980203903.0        2062101717.0
Wiener process for Thermostat # 12       1 F T T  -1.2895158969765455E+00         267581824.0        2573189450.0        1678546986.0        3192590565.0        1807685091.0        1558312379.0         272317999.0         166758548.0         310112982.0         201045826.0        1680231254.0         118290799.0         272317999.0         166758548.0         310112982.0         201045826.0        1680231254.0         118290799.0
Wiener process for Thermostat # 13       1 F T T  -4.1111272346448713E-03        1653154356.0        3038053880.0         411133810.0          42780908.0         901953056.0        3609677496.0        2245755202.0        1652682525.0        2865544364.0         721509566.0         209733568.0         592362218.0        2245755202.0        1652682525.0        2865544364.0         721509566.0         209733568.0         592362218.0
Wiener process for Thermostat # 14       1 F T T  -4.1096990156521812E-01        1838322986.0         826030068.0        3545551442.0        2903474450.0        3063747822.0        2359372974.0        3003961408.0        3529909391.0          14538032.0        3603919910.0         566682685.0        1235016484.0        3003961408.0        3529909391.0          14538032.0        3603919910.0         566682685.0        1235016484.0