$comment
Example of the (undocumented) growing string method in Q-Chem
$end

$molecule
0 2
  C 0.00000000 0.00000000 0.00000000
  O 6.34635302 0.00000000 0.00000000
  O -0.66813225 0.00000000 -1.02094701
  C -0.57293423 0.00623903 1.33844009
  Si -2.42969083 0.05962283 1.53049376
  H -3.04941288 -1.13655227 0.90877331
  H -2.97827670 1.28614584 0.90108489
  H -2.74248690 0.07439969 2.98243147
  H 0.11548221 -0.02622069 2.17827273
  C 6.95158335 0.00314396 -1.29132916
  H 8.02086694 0.11072727 -1.11528077
  H 6.57109852 0.83210800 -1.89160114
  H 6.74759114 -0.93466001 -1.81452683
******
  C 0.00000000 0.00000000 0.00000000
  O 1.34635302 0.00000000 0.00000000
  O -0.66813225 0.00000000 -1.02094701
  C -0.57293423 0.00623903 1.33844009
  Si -2.42969083 0.05962283 1.53049376
  H -3.04941288 -1.13655227 0.90877331
  H -2.97827670 1.28614584 0.90108489
  H -2.74248690 0.07439969 2.98243147
  H 0.11548221 -0.02622069 2.17827273
  C 1.95158335 0.00314396 -1.29132916
  H 3.02086694 0.11072727 -1.11528077
  H 1.57109852 0.83210800 -1.89160114
  H 1.74759114 -0.93466001 -1.81452683
$end

$rem
    jobtype               gsm
    exchange              hf        !omegab97x-d
    basis                 STO-3G    !6-31G**
    unrestricted          true
    state_follow          0
    fsm_ngrad             6 !Gradient steps used per optimization(4)
    fsm_nnode             12 ! Number of nodes (12)
    fsm_mode              2 ! LST Interpolation(2)
    fsm_opt_mode          2 ! Quasi-Newton Optimization(2)
    geom_opt_max_cycles   500
    scf_algorithm         diis_gdm
    scf_max_cycles        500
$end

