$molecule
   0 1
   O       -6.03444       -1.03532        0.05873
   H       -5.37568       -0.34232       -0.19889
   H       -5.75750       -1.84083       -0.44634
  Ar       -2.50065       -1.95736        0.33490
$end

$rem
BASIS           cc-pvdz
EXCHANGE        PBE
CORRELATION     PBE
SCF_ALGORITHM   DIIS
incfock         0
PURCAR          111
MAXSCF          300
symmetry        false
sym_ignore      true
$end
