$comment
   How to read in geometries and Hessians from previous calcs
$end

$molecule
  0 1
  H 0.00 0.00 0.00
  H 0.74 0.00 0.00
$end

$rem
  jobtype     = freq
  basis       = sto-3g
  exchange    = hf
  correlation = none
$end

@@@

$molecule
read
$end

$rem
  jobtype          = opt
  basis            = sto-3g
  exchange         = hf
  correlation      = none
  geom_opt_hessian = read
$end
