$molecule
  -1 1
    B         -0.56570        1.96068        0.07064
    O          0.25487        2.66727       -0.93869
    O         -1.46324        2.92335        0.73907
    O         -1.39180        0.93604       -0.59782
    H         -0.88069        3.53511        1.25833
    H          0.86420        3.26526       -0.43440
    H         -0.76724        0.36997       -1.12006
    O          0.30336        1.31482        1.08004
    H          0.95234        0.75999        0.57591
$end

$rem
jobtype          opt
basis            6-31G*
method           hf
$end
